.Version 9.6.2 of ABINIT

 ABINIT is a project of the Universite Catholique de Louvain,
 Corning Inc. and other collaborators, see ~abinit/doc/developers/contributors.txt .
 acknowledgments of the ABINIT effort.

.Starting date : Wed 14 Dec 2022.
- ( at 22h20 )

- input  file    -> casa
- output file    -> casa.abo
- root for input  files -> i
- root for output files -> o

 DATASET    1 : space group Am m 2 (# 38); Bravais oC (1-face-center ortho.)
     intxc =       0    ionmov =       2      iscf =       7    lmnmax =       6
     lnmax =       6     mgfft =     135  mpssoang =       3    mqgrid =    6638
     natom =       3  nloc_mem =       1    nspden =       1   nspinor =       1
    nsppol =       1      nsym =       4    n1xccc =    2501    ntypat =       2
    occopt =       1   xclevel =       2
-    mband =          20        mffmem =           1         mkmem =           1
       mpw =        2194          nfft =       98415          nkpt =           1
  Rough estimation (10% accuracy) of disk space for files :

 DATASET    2 : space group P6/m m m (#191); Bravais hP (primitive hexag.)
     intxc =       0    ionmov =       0      iscf =       7    lmnmax =       6
     lnmax =       6     mgfft =     135  mpssoang =       3    mqgrid =    6638
     natom =       1  nloc_mem =       1    nspden =       2   nspinor =       1
    nsppol =       2      nsym =      24    n1xccc =    2501    ntypat =       2
    occopt =       7   xclevel =       2
-    mband =          10        mffmem =           1         mkmem =           1
       mpw =        2194          nfft =       98415          nkpt =           1
  Rough estimation (10% accuracy) of disk space for files :

 DATASET    3 : space group P6 m m (#183); Bravais hP (primitive hexag.)
     intxc =       0    ionmov =       0      iscf =       7    lmnmax =       6
     lnmax =       6     mgfft =     135  mpssoang =       3    mqgrid =    6638
     natom =       2  nloc_mem =       1    nspden =       2   nspinor =       1
    nsppol =       2      nsym =      12    n1xccc =    2501    ntypat =       2
    occopt =       7   xclevel =       2
-    mband =          10        mffmem =           1         mkmem =           1
       mpw =        2194          nfft =       98415          nkpt =           1
  Rough estimation (10% accuracy) of disk space for files :

------------- Echo of variables that govern the present computation ------------
-
- outvars: echo of selected default values
-   iomode0 =  0 , fftalg0 =112 , wfoptalg0 =  0
-
- outvars: echo of global parameters not present in the input file
-  max_nthreads =    0
-
 -outvars: echo values of preprocessed input variables --------
            acell      6.0300000000E+00  6.0300000000E+00  3.2970000000E+01 Bohr
              amu      9.59400000E+01  3.20660000E+01
        bs_loband1          0
        bs_loband2          0       0
        bs_loband3          0       0
           diemac      2.00000000E+00
             ecut      2.00000000E+01 Hartree
-          fftalg         112
           ionmov1          2
           ionmov2          0
           ionmov3          0
           istwfk        2
              ixc          11
           jdtset        1    2    3
           kptopt           0
P           mkmem           1
            natom1          3
            natom2          1
            natom3          2
            nband1         20
            nband2         10
            nband3         10
           ndtset           3
            ngfft          27      27     135
             nkpt           1
           nspden1          1
           nspden2          2
           nspden3          2
           nsppol1          1
           nsppol2          2
           nsppol3          2
            nstep          20
             nsym1          4
             nsym2         24
             nsym3         12
            ntime1         20
            ntime2          1
            ntime3          1
           ntypat           2
              occ1     2.000000  2.000000  2.000000  2.000000  2.000000  2.000000
                       2.000000  2.000000  2.000000  2.000000  2.000000  2.000000
                       2.000000  0.000000  0.000000  0.000000  0.000000  0.000000
                       0.000000  0.000000
              occ2     1.000000  1.000000  1.000000  1.000000  1.000000  1.000000
                       1.000000  0.000000  0.000000  0.000000
                       1.000000  1.000000  1.000000  1.000000  1.000000  1.000000
                       1.000000  0.000000  0.000000  0.000000
              occ3     1.000000  1.000000  1.000000  1.000000  1.000000  1.000000
                       1.000000  1.000000  1.000000  1.000000
                       1.000000  1.000000  1.000000  1.000000  1.000000  1.000000
                       1.000000  1.000000  1.000000  1.000000
           occopt1          1
           occopt2          7
           occopt3          7
        optforces1          1
        optforces2          2
        optforces3          2
            rprim      8.6602540378E-01 -5.0000000000E-01  0.0000000000E+00
                       8.6602540378E-01  5.0000000000E-01  0.0000000000E+00
                       0.0000000000E+00  0.0000000000E+00  1.0000000000E+00
          spgroup1         38
          spgroup2        191
          spgroup3        183
           spinat2     0.0000000000E+00  0.0000000000E+00  1.0000000000E+00
           spinat3     0.0000000000E+00  0.0000000000E+00  1.0000000000E+00
                       0.0000000000E+00  0.0000000000E+00  1.0000000000E+00
           symafm1       1    1    1    1
           symafm2       1    1    1    1    1    1    1    1    1    1
                         1    1    1    1    1    1    1    1    1    1
                         1    1    1    1
           symafm3       1    1    1    1    1    1    1    1    1    1
                         1    1
           symrel1     1  0  0   0  1  0   0  0  1       0  1  0   1  0  0   0  0 -1
                       1  0  0   0  1  0   0  0 -1       0  1  0   1  0  0   0  0  1
           symrel2     1  0  0   0  1  0   0  0  1      -1  0  0   0 -1  0   0  0 -1
                      -1  1  0   0  1  0   0  0  1       1 -1  0   0 -1  0   0  0 -1
                       0  1  0  -1  1  0   0  0  1       0 -1  0   1 -1  0   0  0 -1
                      -1  0  0  -1  1  0   0  0  1       1  0  0   1 -1  0   0  0 -1
                      -1  1  0  -1  0  0   0  0  1       1 -1  0   1  0  0   0  0 -1
                       0 -1  0  -1  0  0   0  0  1       0  1  0   1  0  0   0  0 -1
                      -1  0  0   0 -1  0   0  0  1       1  0  0   0  1  0   0  0 -1
                       1 -1  0   0 -1  0   0  0  1      -1  1  0   0  1  0   0  0 -1
                       0 -1  0   1 -1  0   0  0  1       0  1  0  -1  1  0   0  0 -1
                       1  0  0   1 -1  0   0  0  1      -1  0  0  -1  1  0   0  0 -1
                       1 -1  0   1  0  0   0  0  1      -1  1  0  -1  0  0   0  0 -1
                       0  1  0   1  0  0   0  0  1       0 -1  0  -1  0  0   0  0 -1
           symrel3     1  0  0   0  1  0   0  0  1      -1  1  0   0  1  0   0  0  1
                       0  1  0  -1  1  0   0  0  1      -1  0  0  -1  1  0   0  0  1
                      -1  1  0  -1  0  0   0  0  1       0 -1  0  -1  0  0   0  0  1
                      -1  0  0   0 -1  0   0  0  1       1 -1  0   0 -1  0   0  0  1
                       0 -1  0   1 -1  0   0  0  1       1  0  0   1 -1  0   0  0  1
                       1 -1  0   1  0  0   0  0  1       0  1  0   1  0  0   0  0  1
            tnons1     0.0000000  0.0000000  0.0000000     0.0000000  0.0000000  0.0000000
                       0.0000000  0.0000000  0.0000000     0.0000000  0.0000000  0.0000000
            tnons2     0.0000000  0.0000000  0.0000000     0.2000000  0.0000000  0.2000000
                       0.2000000 -0.1000000  0.0000000     0.0000000  0.1000000  0.2000000
                       0.1000000 -0.1000000  0.0000000     0.1000000  0.1000000  0.2000000
                       0.2000000  0.0000000  0.0000000     0.0000000  0.0000000  0.2000000
                       0.2000000 -0.1000000  0.0000000     0.0000000  0.1000000  0.2000000
                       0.1000000  0.1000000  0.0000000     0.1000000 -0.1000000  0.2000000
                       0.2000000  0.0000000  0.0000000     0.0000000  0.0000000  0.2000000
                       0.0000000  0.1000000  0.0000000     0.2000000 -0.1000000  0.2000000
                       0.1000000  0.1000000  0.0000000     0.1000000 -0.1000000  0.2000000
                       0.0000000  0.0000000  0.0000000     0.2000000  0.0000000  0.2000000
                       0.0000000  0.1000000  0.0000000     0.2000000 -0.1000000  0.2000000
                       0.1000000 -0.1000000  0.0000000     0.1000000  0.1000000  0.2000000
            tnons3     0.0000000  0.0000000  0.0000000     0.5000000 -0.2500000  0.0000000
                       0.5000000 -0.2500000  0.0000000    -0.2500000  0.0000000  0.0000000
                      -0.2500000  0.0000000  0.0000000     0.5000000  0.5000000  0.0000000
                       0.5000000  0.5000000  0.0000000     0.0000000 -0.2500000  0.0000000
                       0.0000000 -0.2500000  0.0000000    -0.2500000  0.5000000  0.0000000
                      -0.2500000  0.5000000  0.0000000     0.0000000  0.0000000  0.0000000
           toldfe1     0.00000000E+00 Hartree
           toldfe2     1.00000000E-06 Hartree
           toldfe3     1.00000000E-06 Hartree
           toldff1     5.00000000E-05
           toldff2     0.00000000E+00
           toldff3     0.00000000E+00
           tolmxf1     5.00000000E-04
           tolmxf2     5.00000000E-05
           tolmxf3     5.00000000E-05
            typat1     1  2  2
            typat2     1
            typat3     1  2
           xangst1     0.0000000000E+00  0.0000000000E+00  0.0000000000E+00
                       1.8415366859E+00  0.0000000000E+00 -7.6730695246E-01
                       1.8415366859E+00  0.0000000000E+00  7.6730695246E-01
           xangst2     2.7634338616E-01 -1.5954692839E-01  1.7446972567E+00
           xangst3     1.3817169308E+00  0.0000000000E+00 -7.6730695246E-01
                       1.3817169308E+00  0.0000000000E+00  7.6730695246E-01
            xcart1     0.0000000000E+00  0.0000000000E+00  0.0000000000E+00
                       3.4800000000E+00  0.0000000000E+00 -1.4500000000E+00
                       3.4800000000E+00  0.0000000000E+00  1.4500000000E+00
            xcart2     5.2221331848E-01 -3.0150000000E-01  3.2970000000E+00
            xcart3     2.6110665924E+00  0.0000000000E+00 -1.4500000000E+00
                       2.6110665924E+00  0.0000000000E+00  1.4500000000E+00
             xred1     0.0000000000E+00  0.0000000000E+00  0.0000000000E+00
                       3.3319717028E-01  3.3319717028E-01 -4.3979375190E-02
                       3.3319717028E-01  3.3319717028E-01  4.3979375190E-02
             xred2     1.0000000000E-01  6.9388939039E-18  1.0000000000E-01
             xred3     2.5000000000E-01  2.5000000000E-01 -4.3979375190E-02
[...]
...

     iter   Etot(hartree)     deltaE(h) residm    vres2    magn
 ETOT  1  -80.357650694238    -8.04E+01 1.02E-01 4.13E+03 0.000
 ETOT  2  -80.493257718112    -1.36E-01 6.19E-04 8.33E+03 0.000
 ETOT  3  -80.526002568362    -3.27E-02 3.12E-03 2.27E+04 0.000
 ETOT  4  -80.750812047237    -2.25E-01 1.31E-03 1.53E+03 0.000
 ETOT  5  -80.729542474108     2.13E-02 1.02E-04 1.93E+03 0.000
 ETOT  6  -80.772194749643    -4.27E-02 9.17E-05 2.73E+02 0.000
 ETOT  7  -80.777736306657    -5.54E-03 6.57E-05 4.29E+01 0.000
 ETOT  8  -80.778591516965    -8.55E-04 5.25E-06 1.08E+01 0.000
 ETOT  9  -80.778729368861    -1.38E-04 2.34E-06 5.08E+00 0.000
 ETOT 10  -80.778832177113    -1.03E-04 1.02E-06 1.29E+00 0.000
 ETOT 11  -80.637441547030     1.41E-01 3.35E-06 6.15E+03 0.000
 ETOT 12  -80.642540838395    -5.10E-03 2.53E-04 6.36E+03 0.000
 ETOT 13  -80.642733245190    -1.92E-04 3.04E-06 6.26E+03 0.000
 ETOT 14  -80.642748090942    -1.48E-05 4.90E-06 6.29E+03 0.000
 ETOT 15  -80.637649842079     5.10E-03 1.27E-05 6.40E+03 0.000
 ETOT 16  -80.638811381930    -1.16E-03 1.72E-05 6.33E+03 0.000
 ETOT 17  -80.628277891403     1.05E-02 3.61E-05 6.49E+03 0.000
 ETOT 18  -80.625071555651     3.21E-03 8.04E-05 6.85E+03 0.000
 ETOT 19  -80.710386365857    -8.53E-02 3.50E-03 1.25E+03 0.000
 ETOT 20  -80.636232129590     7.42E-02 1.58E-03 6.58E+03 0.000

[...]

 scprqt:  WARNING -
  nstep=   20 was not enough SCF cycles to converge;
  maximum energy difference=  7.415E-02 exceeds toldfe=  1.000E-06

--- !ResultsGS
iteration_state: {dtset: 3, }
comment   : Summary of ground state results
lattice_vectors:
- [  5.2221332,  -3.0150000,   0.0000000, ]
- [  5.2221332,   3.0150000,   0.0000000, ]
- [  0.0000000,   0.0000000,  32.9700000, ]
lattice_lengths: [   6.03000,    6.03000,   32.97000, ]
lattice_angles: [ 90.000,  90.000,  60.000, ] # degrees, (23, 13, 12)
lattice_volume:   1.0382076E+03
convergence: {deltae:  7.415E-02, res2:  6.579E+03, residm:  1.581E-03, diffor: null, }
etotal    :  -8.06362321E+01
entropy   :   0.00000000E+00
fermie    :   5.34018969E-03
cartesian_stress_tensor: # hartree/bohr^3
- [  4.40294713E-04,   0.00000000E+00,   0.00000000E+00, ]
- [  0.00000000E+00,   4.40294713E-04,   0.00000000E+00, ]
- [  0.00000000E+00,   0.00000000E+00,  -1.92897945E-03, ]
pressure_GPa:   1.0282E+01
xred      :
- [  2.5000E-01,   2.5000E-01,  -4.3979E-02, Mo]
- [  2.5000E-01,   2.5000E-01,   4.3979E-02,  S]
cartesian_forces: # hartree/bohr
- [ -3.37917841E-23,  -5.85290870E-23,  -9.01916886E-01, ]
- [  3.37917841E-23,   5.85290870E-23,   9.01916886E-01, ]
force_length_stats: {min:   9.01916886E-01, max:   9.01916886E-01, mean:   9.01916886E-01, }
...

 Integrated electronic and magnetization densities in atomic spheres:
 Radius=ratsph(iatom), smearing ratsm=  0.0000. Diff(up-dn)=approximate z local magnetic moment.
 Atom    Radius    up_density   dn_density  Total(up+dn)  Diff(up-dn)
    1   2.00000     5.104750     5.670581     10.775331    -0.565830
    2   2.00000     2.708085     2.639192      5.347277     0.068894
  Sum:              7.812836     8.309772     16.122608    -0.496937
 Total magnetization (from the atomic spheres):            -0.496937
 Total magnetization (exact up - dn):                      -0.000000

 ----iterations are completed or convergence reached----

 Mean square residual over all n,k,spin=   51.199E-05; max=  15.812E-04
 reduced coordinates (array xred) for    2 atoms
       0.250000000000      0.250000000000     -0.043979375190
       0.250000000000      0.250000000000      0.043979375190
 rms dE/dt=  1.7168E+01; max dE/dt=  2.9761E+01; dE/dt below (all hartree)
    1       0.000000000000      0.000000000000     29.760500182668
    2       0.000000000000     -0.000000000000    -29.711899248130

 cartesian coordinates (angstrom) at end:
    1      1.38171693081417     0.00000000000000    -0.76730695246307
    2      1.38171693081417     0.00000000000000     0.76730695246307

 cartesian forces (hartree/bohr) at end:
    1     -0.00000000000000    -0.00000000000000    -0.90191688551406
    2      0.00000000000000     0.00000000000000     0.90191688551406
 frms,max,avg= 5.2072196E-01 9.0191689E-01   0.000E+00  0.000E+00 -7.370E-04 h/b

 cartesian forces (eV/Angstrom) at end:
    1     -0.00000000000000    -0.00000000000000   -46.37842708103849
    2      0.00000000000000     0.00000000000000    46.37842708103849
 frms,max,avg= 2.6776597E+01 4.6378427E+01   0.000E+00  0.000E+00 -3.790E-02 e/A
 length scales=  6.030000000000  6.030000000000 32.970000000000 bohr
              =  3.190938567798  3.190938567798 17.446972567212 angstroms
 prteigrs : about to open file o_DS3_EIG
 Fermi (or HOMO) energy (hartree) =   0.00534   Average Vxc (hartree)=  -0.13779
 Magnetization (Bohr magneton)=  0.00000000E+00
 Total spin up =  1.00000000E+01   Total spin down =  1.00000000E+01
 Eigenvalues (hartree) for nkpt=   1  k points, SPIN UP:
 kpt#   1, nband= 10, wtk=  1.00000, kpt=  0.0000  0.0000  0.0000 (reduced coord)
  -2.32938   -1.43964   -1.35889   -1.35889   -0.65890   -0.28868   -0.28868   -0.26024
  -0.24927   -0.04996
      occupation numbers for kpt#   1
   1.00000    1.00000    1.00000    1.00000    1.00000    1.00000    1.00000    1.00000
   1.00000    1.00000
 Eigenvalues (hartree) for nkpt=   1  k points, SPIN DOWN:
 kpt#   1, nband= 10, wtk=  1.00000, kpt=  0.0000  0.0000  0.0000 (reduced coord)
  -2.34289   -1.43874   -1.38387   -1.38387   -0.65011   -0.28748   -0.28748   -0.27181
  -0.23845   -0.14064
      occupation numbers for kpt#   1
   1.00000    1.00000    1.00000    1.00000    1.00000    1.00000    1.00000    1.00000
   1.00000    1.00000

--- !EnergyTerms
iteration_state     : {dtset: 3, }
comment             : Components of total free energy in Hartree
kinetic             :  2.65112719403102E+01
hartree             :  1.58634749189198E+02
xc                  : -1.35680114031025E+01
Ewald energy        :  9.66136382771215E+01
psp_core            :  4.81120629240019E-01
local_psp           : -3.59640232208757E+02
non_local_psp       :  1.03312314463998E+01
internal            : -8.06362321295903E+01
'-kT*entropy'       : -1.54561104835020E-16
total_energy        : -8.06362321295903E+01
total_energy_eV     : -2.19422346550235E+03
band_energy         : -1.67078557383574E+01
...

 Cartesian components of stress tensor (hartree/bohr^3)
  sigma(1 1)=  4.40294713E-04  sigma(3 2)=  0.00000000E+00
  sigma(2 2)=  4.40294713E-04  sigma(3 1)=  0.00000000E+00
  sigma(3 3)= -1.92897945E-03  sigma(2 1)=  0.00000000E+00

-Cartesian components of stress tensor (GPa)         [Pressure=  1.0282E+01 GPa]
- sigma(1 1)=  1.29539155E+01  sigma(3 2)=  0.00000000E+00
- sigma(2 2)=  1.29539155E+01  sigma(3 1)=  0.00000000E+00
- sigma(3 3)= -5.67525251E+01  sigma(2 1)=  0.00000000E+00

== END DATASET(S) ==============================================================

 -outvars: echo values of variables after computation  --------
            acell      6.0300000000E+00  6.0300000000E+00  3.2970000000E+01 Bohr
              amu      9.59400000E+01  3.20660000E+01
        bs_loband1          0
        bs_loband2          0       0
        bs_loband3          0       0
           diemac      2.00000000E+00
             ecut      2.00000000E+01 Hartree
           etotal1    -9.2106431600E+01
           etotal2    -7.0148747261E+01
           etotal3    -8.0636232130E+01
            fcart1     1.3080880721E-04  1.3552527156E-20 -0.0000000000E+00
                      -6.5404403607E-05 -6.7762635780E-21 -1.4225826843E-05
                      -6.5404403607E-05 -6.7762635780E-21  1.4225826843E-05
            fcart2    -0.0000000000E+00 -0.0000000000E+00 -0.0000000000E+00
            fcart3    -3.3791784142E-23 -5.8529087013E-23 -9.0191688551E-01
                       3.3791784142E-23  5.8529087013E-23  9.0191688551E-01
-          fftalg         112
           ionmov1          2
           ionmov2          0
           ionmov3          0
           istwfk        2
              ixc          11
           jdtset        1    2    3
           kptopt           0
P           mkmem           1
            natom1          3
            natom2          1
            natom3          2
            nband1         20
            nband2         10
            nband3         10
           ndtset           3
            ngfft          27      27     135
             nkpt           1
           nspden1          1
           nspden2          2
           nspden3          2
           nsppol1          1
           nsppol2          2
           nsppol3          2
            nstep          20
             nsym1          4
             nsym2         24
             nsym3         12
            ntime1         20
            ntime2          1
            ntime3          1
           ntypat           2
              occ1     2.000000  2.000000  2.000000  2.000000  2.000000  2.000000
                       2.000000  2.000000  2.000000  2.000000  2.000000  2.000000
                       2.000000  0.000000  0.000000  0.000000  0.000000  0.000000
                       0.000000  0.000000
              occ2     1.000000  1.000000  1.000000  1.000000  1.000000  1.000000
                       1.000000  0.999997  0.010015  0.010015
                       1.000000  1.000000  1.000000  1.000000  1.000000  0.979876
                       0.000049  0.000049  0.000000  0.000000
              occ3     1.000000  1.000000  1.000000  1.000000  1.000000  1.000000
                       1.000000  1.000000  1.000000  1.000000
                       1.000000  1.000000  1.000000  1.000000  1.000000  1.000000
                       1.000000  1.000000  1.000000  1.000000
           occopt1          1
           occopt2          7
           occopt3          7
        optforces1          1
        optforces2          2
        optforces3          2
            rprim      8.6602540378E-01 -5.0000000000E-01  0.0000000000E+00
                       8.6602540378E-01  5.0000000000E-01  0.0000000000E+00
                       0.0000000000E+00  0.0000000000E+00  1.0000000000E+00
          spgroup1         38
          spgroup2        191
          spgroup3        183
           spinat2     0.0000000000E+00  0.0000000000E+00  1.0000000000E+00
           spinat3     0.0000000000E+00  0.0000000000E+00  1.0000000000E+00
                       0.0000000000E+00  0.0000000000E+00  1.0000000000E+00
           strten1    -1.1715536257E-04 -1.1729050065E-04  2.6364100824E-04
                       0.0000000000E+00  0.0000000000E+00  0.0000000000E+00
           strten2     5.0426477098E-04  5.0426477098E-04  2.6548706950E-04
                       0.0000000000E+00  0.0000000000E+00  0.0000000000E+00
           strten3     4.4029471298E-04  4.4029471298E-04 -1.9289794458E-03
                       0.0000000000E+00  0.0000000000E+00  0.0000000000E+00
           symafm1       1    1    1    1
           symafm2       1    1    1    1    1    1    1    1    1    1
                         1    1    1    1    1    1    1    1    1    1
                         1    1    1    1
           symafm3       1    1    1    1    1    1    1    1    1    1
                         1    1
           symrel1     1  0  0   0  1  0   0  0  1       0  1  0   1  0  0   0  0 -1
                       1  0  0   0  1  0   0  0 -1       0  1  0   1  0  0   0  0  1
           symrel2     1  0  0   0  1  0   0  0  1      -1  0  0   0 -1  0   0  0 -1
                      -1  1  0   0  1  0   0  0  1       1 -1  0   0 -1  0   0  0 -1
                       0  1  0  -1  1  0   0  0  1       0 -1  0   1 -1  0   0  0 -1
                      -1  0  0  -1  1  0   0  0  1       1  0  0   1 -1  0   0  0 -1
                      -1  1  0  -1  0  0   0  0  1       1 -1  0   1  0  0   0  0 -1
                       0 -1  0  -1  0  0   0  0  1       0  1  0   1  0  0   0  0 -1
                      -1  0  0   0 -1  0   0  0  1       1  0  0   0  1  0   0  0 -1
                       1 -1  0   0 -1  0   0  0  1      -1  1  0   0  1  0   0  0 -1
                       0 -1  0   1 -1  0   0  0  1       0  1  0  -1  1  0   0  0 -1
                       1  0  0   1 -1  0   0  0  1      -1  0  0  -1  1  0   0  0 -1
                       1 -1  0   1  0  0   0  0  1      -1  1  0  -1  0  0   0  0 -1
                       0  1  0   1  0  0   0  0  1       0 -1  0  -1  0  0   0  0 -1
           symrel3     1  0  0   0  1  0   0  0  1      -1  1  0   0  1  0   0  0  1
                       0  1  0  -1  1  0   0  0  1      -1  0  0  -1  1  0   0  0  1
                      -1  1  0  -1  0  0   0  0  1       0 -1  0  -1  0  0   0  0  1
                      -1  0  0   0 -1  0   0  0  1       1 -1  0   0 -1  0   0  0  1
                       0 -1  0   1 -1  0   0  0  1       1  0  0   1 -1  0   0  0  1
                       1 -1  0   1  0  0   0  0  1       0  1  0   1  0  0   0  0  1
            tnons1     0.0000000  0.0000000  0.0000000     0.0000000  0.0000000  0.0000000
                       0.0000000  0.0000000  0.0000000     0.0000000  0.0000000  0.0000000
            tnons2     0.0000000  0.0000000  0.0000000     0.2000000  0.0000000  0.2000000
                       0.2000000 -0.1000000  0.0000000     0.0000000  0.1000000  0.2000000
                       0.1000000 -0.1000000  0.0000000     0.1000000  0.1000000  0.2000000
                       0.2000000  0.0000000  0.0000000     0.0000000  0.0000000  0.2000000
                       0.2000000 -0.1000000  0.0000000     0.0000000  0.1000000  0.2000000
                       0.1000000  0.1000000  0.0000000     0.1000000 -0.1000000  0.2000000
                       0.2000000  0.0000000  0.0000000     0.0000000  0.0000000  0.2000000
                       0.0000000  0.1000000  0.0000000     0.2000000 -0.1000000  0.2000000
                       0.1000000  0.1000000  0.0000000     0.1000000 -0.1000000  0.2000000
                       0.0000000  0.0000000  0.0000000     0.2000000  0.0000000  0.2000000
                       0.0000000  0.1000000  0.0000000     0.2000000 -0.1000000  0.2000000
                       0.1000000 -0.1000000  0.0000000     0.1000000  0.1000000  0.2000000
            tnons3     0.0000000  0.0000000  0.0000000     0.5000000 -0.2500000  0.0000000
                       0.5000000 -0.2500000  0.0000000    -0.2500000  0.0000000  0.0000000
                      -0.2500000  0.0000000  0.0000000     0.5000000  0.5000000  0.0000000
                       0.5000000  0.5000000  0.0000000     0.0000000 -0.2500000  0.0000000
                       0.0000000 -0.2500000  0.0000000    -0.2500000  0.5000000  0.0000000
                      -0.2500000  0.5000000  0.0000000     0.0000000  0.0000000  0.0000000
           toldfe1     0.00000000E+00 Hartree
           toldfe2     1.00000000E-06 Hartree
           toldfe3     1.00000000E-06 Hartree
           toldff1     5.00000000E-05
           toldff2     0.00000000E+00
           toldff3     0.00000000E+00
           tolmxf1     5.00000000E-04
           tolmxf2     5.00000000E-05
           tolmxf3     5.00000000E-05
            typat1     1  2  2
            typat2     1
            typat3     1  2
           xangst1    -5.8751651461E-04 -3.4424104751E-19 -4.8780604415E-19
                       1.8418304442E+00  0.0000000000E+00 -1.4030925080E+00
                       1.8418304442E+00  0.0000000000E+00  1.4030925080E+00
           xangst2     2.7634338616E-01 -1.5954692839E-01  1.7446972567E+00
           xangst3     1.3817169308E+00  0.0000000000E+00 -7.6730695246E-01
                       1.3817169308E+00  0.0000000000E+00  7.6730695246E-01
            xcart1    -1.1102453112E-03 -6.5052130349E-19 -9.2181982941E-19
                       3.4805551227E+00  0.0000000000E+00 -2.6514605792E+00
                       3.4805551227E+00  0.0000000000E+00  2.6514605792E+00
            xcart2     5.2221331848E-01 -3.0150000000E-01  3.2970000000E+00
            xcart3     2.6110665924E+00  0.0000000000E+00 -1.4500000000E+00
                       2.6110665924E+00  0.0000000000E+00  1.4500000000E+00
             xred1    -1.0630189540E-04 -1.0630189540E-04 -2.7959351817E-20
                       3.3325032123E-01  3.3325032123E-01 -8.0420399734E-02
                       3.3325032123E-01  3.3325032123E-01  8.0420399734E-02
             xred2     1.0000000000E-01  6.9388939039E-18  1.0000000000E-01
             xred3     2.5000000000E-01  2.5000000000E-01 -4.3979375190E-02
                       2.5000000000E-01  2.5000000000E-01  4.3979375190E-02
            znucl       42.00000   16.00000

- Timing analysis has been suppressed with timopt=0

 Suggested references for the acknowledgment of ABINIT usage.

 Calculation completed.
.Delivered   5 WARNINGs and   5 COMMENTs to log file.