.Version 9.6.2 of ABINIT

 ABINIT is a project of the Universite Catholique de Louvain,
 Corning Inc. and other collaborators, see ~abinit/doc/developers/contributors.txt .
 acknowledgments of the ABINIT effort.

.Starting date : Wed 14 Dec 2022.
- ( at 22h20 )

 === Build Information ===
  Version       : 9.6.2
  Build target  : x86_64_linux_gnu11.2
  Build date    : 20220106

 === Optimizations ===
  Debug level        : basic
  Optimization level : standard
  Architecture       : intel_xeon

 === Multicore ===
  Parallel build :
  Parallel I/O   :
  openMP support :
  GPU support    :

 === Connectors / Fallbacks ===
  LINALG flavor  : netlib
  FFT flavor     : goedecker
  HDF5           : yes
  NetCDF         : yes
  NetCDF Fortran : yes
  Wannier90      : no

 === Experimental features ===
  Exports             :
  GW double-precision :

 Default optimizations:
   --- None ---

 CPP options activated during the build:

                    CC_GNU                   CXX_GNU                    FC_GNU

 HAVE_FC_ALLOCATABLE_DT...             HAVE_FC_ASYNC         HAVE_FC_BACKTRACE

  HAVE_FC_COMMAND_ARGUMENT      HAVE_FC_COMMAND_LINE        HAVE_FC_CONTIGUOUS

           HAVE_FC_CPUTIME              HAVE_FC_EXIT             HAVE_FC_FLUSH

             HAVE_FC_GAMMA            HAVE_FC_GETENV   HAVE_FC_IEEE_ARITHMETIC

   HAVE_FC_IEEE_EXCEPTIONS          HAVE_FC_INT_QUAD             HAVE_FC_IOMSG

     HAVE_FC_ISO_C_BINDING  HAVE_FC_ISO_FORTRAN_2008        HAVE_FC_LONG_LINES

        HAVE_FC_MOVE_ALLOC  HAVE_FC_ON_THE_FLY_SHAPE           HAVE_FC_PRIVATE

         HAVE_FC_PROTECTED           HAVE_FC_SHIFTLR         HAVE_FC_STREAM_IO

            HAVE_FC_SYSTEM          HAVE_FORTRAN2003                 HAVE_HDF5

                  HAVE_MPI                 HAVE_MPI2       HAVE_MPI_IALLGATHER

       HAVE_MPI_IALLREDUCE        HAVE_MPI_IALLTOALL       HAVE_MPI_IALLTOALLV

           HAVE_MPI_IBCAST         HAVE_MPI_IGATHERV        HAVE_MPI_INTEGER16

               HAVE_MPI_IO HAVE_MPI_TYPE_CREATE_S...               HAVE_NETCDF

       HAVE_NETCDF_FORTRAN                HAVE_NUMPY             HAVE_OS_LINUX

         HAVE_TIMER_ABINIT

- input  file    -> casa
- output file    -> casa.abo
- root for input  files -> i
- root for output files -> o

-instrng: 98 lines of input have been read from file casa

 For atom type 1, psp file is Mo.psp8
 For atom type 2, psp file is S.psp8
  read the values zionpsp= 14.0 , pspcod=   8 , lmax=   2
  read the values zionpsp=  6.0 , pspcod=   8 , lmax=   2

 inpspheads: deduce mpsang = 3, n1xccc = 2501.

 invars1m : enter jdtset= 1

 symlatt: the Bravais lattice is hP (primitive hexagonal)
  xcart  is defined in input file (possibly in Angstrom)
 ingeo: takes atomic coordinates from input array xcart

--- !COMMENT
src_file: m_ingeo.F90
src_line: 900
message: |
    The tolerance on symmetries =   1.000E-05 is bigger than 1.0e-8.
    In order to avoid spurious effects, the atomic coordinates have been
    symmetrized before storing them in the dataset internal variable.
    So, do not be surprised by the fact that your input variables (xcart, xred, ...)
    do not correspond exactly to the ones echoed by ABINIT, the latter being used to do the calculations.
    This is not a problem per se.
    Still, in order to avoid this symmetrization (e.g. for specific debugging/development), decrease tolsym to 1.0e-8 or lower,
    or (much preferred) use input primitive vectors that are accurate to better than 1.0e-8.
    This message will only be printed once, even if there are other datasets where tolsym is bigger than 1.0e-8.
...

 symlatt: the Bravais lattice is hP (primitive hexagonal)

[...]

--- !COMMENT
src_file: m_symfind.F90
src_line: 1020
message: |
    The Bravais lattice determined only from the primitive
    vectors, bravais(1)=  6, is more symmetric
    than the real one, iholohedry=  3, obtained by taking into
    account the atomic positions. Start deforming the primitive vector set.
...

 symlatt: the Bravais lattice is oC (one-face-centered orthorhombic)
 symspgr: spgroup=  38  Am m 2   (=C2v^14)
 inkpts: Sum of 1 k point weights is    1.000000

[...]

 symlatt: the Bravais lattice is hP (primitive hexagonal)
  xred   is defined in input file
 ingeo: takes atomic coordinates from input array xred

[...]

 symlatt: the Bravais lattice is hP (primitive hexagonal)
 symspgr: spgroup= 191  P6/m m m   (=D6h^1)
 symspgr: optical characteristics = uniaxial
 Optical axis (in reduced coordinates, real space ) :   0   0   1
 inkpts: Sum of 1 k point weights is    1.000000

 invars1m : enter jdtset= 3

 symlatt: the Bravais lattice is hP (primitive hexagonal)
  xred   is defined in input file
 ingeo: takes atomic coordinates from input array xred

 symlatt: the Bravais lattice is hP (primitive hexagonal)

 symlatt: the Bravais lattice is hP (primitive hexagonal)
 symspgr: spgroup= 183  P6 m m   (=C6v^1)
 symspgr: optical characteristics = uniaxial
 Optical axis (in reduced coordinates, real space ) :   0   0   1
 inkpts: Sum of 1 k point weights is    1.000000
 inkpts: Sum of 1 k point weights is    1.000000
 inkpts: Sum of 1 k point weights is    1.000000
 initocc_chkneu: initialized the occupation numbers for occopt= 7
    spin up   values:
 inkpts: Sum of 1 k point weights is    1.000000
 initocc_chkneu: initialized the occupation numbers for occopt= 7
    spin up   values:
 For input ecut=  2.000000E+01 best grid ngfft=      27      27     135
       max ecut=  2.037893E+01

 ==== FFT mesh ====
  FFT mesh divisions ........................    27   27  135
  Augmented FFT divisions ...................    27   27  135
  FFT algorithm .............................   112
  FFT cache size ............................    16
 getmpw: optimal value of mpw= 2194
 For input ecut=  2.000000E+01 best grid ngfft=      27      27     135
       max ecut=  2.037893E+01

 ==== FFT mesh ====
  FFT mesh divisions ........................    27   27  135
  Augmented FFT divisions ...................    27   27  135
  FFT algorithm .............................   112
  FFT cache size ............................    16
 getmpw: optimal value of mpw= 2194
 For input ecut=  2.000000E+01 best grid ngfft=      27      27     135
       max ecut=  2.037893E+01

 ==== FFT mesh ====
  FFT mesh divisions ........................    27   27  135
  Augmented FFT divisions ...................    27   27  135
  FFT algorithm .............................   112
  FFT cache size ............................    16
 getmpw: optimal value of mpw= 2194

 DATASET    1 : space group Am m 2 (# 38); Bravais oC (1-face-center ortho.)

 getdim_nloc : deduce lmnmax  =  18, lnmax  =   6,
                      lmnmaxso=  18, lnmaxso=   6.
     intxc =       0    ionmov =       2      iscf =       7    lmnmax =       6
     lnmax =       6     mgfft =     135  mpssoang =       3    mqgrid =    6638
     natom =       3  nloc_mem =       1    nspden =       1   nspinor =       1
    nsppol =       1      nsym =       4    n1xccc =    2501    ntypat =       2
    occopt =       1   xclevel =       2
-    mband =          20        mffmem =           1         mkmem =           1
       mpw =        2194          nfft =       98415          nkpt =           1
  Rough estimation (10% accuracy) of disk space for files :

 The job will continue.

 DATASET    2 : space group P6/m m m (#191); Bravais hP (primitive hexag.)

[...]

 The job will continue.

 DATASET    3 : space group P6 m m (#183); Bravais hP (primitive hexag.)

 getdim_nloc : deduce lmnmax  =  18, lnmax  =   6,
                      lmnmaxso=  18, lnmaxso=   6.
     intxc =       0    ionmov =       0      iscf =       7    lmnmax =       6
     lnmax =       6     mgfft =     135  mpssoang =       3    mqgrid =    6638
     natom =       2  nloc_mem =       1    nspden =       2   nspinor =       1
    nsppol =       2      nsym =      12    n1xccc =    2501    ntypat =       2
    occopt =       7   xclevel =       2
-    mband =          10        mffmem =           1         mkmem =           1
       mpw =        2194          nfft =       98415          nkpt =           1
  Rough estimation (10% accuracy) of disk space for files :

 The job will continue.
------------- Echo of variables that govern the present computation ------------
-
- outvars: echo of selected default values
-   iomode0 =  0 , fftalg0 =112 , wfoptalg0 =  0
-
- outvars: echo of global parameters not present in the input file
-  max_nthreads =    0
-
 -outvars: echo values of preprocessed input variables --------

 These variables are accessible in NetCDF format (o_OUT.nc)

            acell      6.0300000000E+00  6.0300000000E+00  3.2970000000E+01 Bohr
              amu      9.59400000E+01  3.20660000E+01
        bs_loband1          0
        bs_loband2          0       0
        bs_loband3          0       0
           diemac      2.00000000E+00
             ecut      2.00000000E+01 Hartree
-          fftalg         112
           ionmov1          2
           ionmov2          0
           ionmov3          0
           istwfk        2
              ixc          11
           jdtset        1    2    3
           kptopt           0
P           mkmem           1
            natom1          3
            natom2          1
            natom3          2
            nband1         20
            nband2         10
            nband3         10
           ndtset           3
            ngfft          27      27     135
             nkpt           1
           nspden1          1
           nspden2          2
           nspden3          2
           nsppol1          1
           nsppol2          2
           nsppol3          2
            nstep          20
             nsym1          4
             nsym2         24
             nsym3         12
            ntime1         20
            ntime2          1
            ntime3          1
           ntypat           2
              occ1     2.000000  2.000000  2.000000  2.000000  2.000000  2.000000
                       2.000000  2.000000  2.000000  2.000000  2.000000  2.000000
                       2.000000  0.000000  0.000000  0.000000  0.000000  0.000000
                       0.000000  0.000000
              occ2     1.000000  1.000000  1.000000  1.000000  1.000000  1.000000
                       1.000000  0.000000  0.000000  0.000000
                       1.000000  1.000000  1.000000  1.000000  1.000000  1.000000
                       1.000000  0.000000  0.000000  0.000000
              occ3     1.000000  1.000000  1.000000  1.000000  1.000000  1.000000
                       1.000000  1.000000  1.000000  1.000000
                       1.000000  1.000000  1.000000  1.000000  1.000000  1.000000
                       1.000000  1.000000  1.000000  1.000000
           occopt1          1
           occopt2          7
           occopt3          7
        optforces1          1
        optforces2          2
        optforces3          2
            rprim      8.6602540378E-01 -5.0000000000E-01  0.0000000000E+00
                       8.6602540378E-01  5.0000000000E-01  0.0000000000E+00
[...]
      Minimum=    0.0000E+00  at reduced coord.    0.0370    0.0000    0.4889
   Integrated=    1.0000E+01
 Spin down density    [el/Bohr^3]
      Maximum=    4.7379E-01  at reduced coord.    0.2222    0.2593    0.9333
      Minimum=    0.0000E+00  at reduced coord.    0.2222    0.0370    0.3778
   Integrated=    1.0000E+01
 Magnetization (spin up - spin down) [el/Bohr^3]
      Maximum=    3.6519E-02  at reduced coord.    0.2593    0.2593    0.9852
      Minimum=   -5.7616E-02  at reduced coord.    0.2593    0.0741    0.9556
   Integrated=   -1.3484E-07
 Relative magnetization (=zeta, between -1 and 1)
      Maximum=    9.9688E-01  at reduced coord.    0.0741    0.2593    0.7111
      Minimum=   -2.7501E-01  at reduced coord.    0.8889    0.6296    0.9630
 ETOT 20  -80.636232129590     7.42E-02 1.58E-03 6.58E+03 0.000
 scprqt: <Vxc>= -1.3778547E-01 hartree

 Pulay update with  7 previous iterations:
 mixing of old trial potential: alpha(m:m-4)=  0.273      0.526      -3.18     -0.325     -0.160

 Ekinetic   = :     2.651127E+01 Ha ,    7.214084E+02 eV
 Evext_l    = :    -3.596402E+02 Ha ,   -9.786308E+03 eV
 Evext_nl   = :     1.033123E+01 Ha ,    2.811271E+02 eV
 Epsp_core  = :     4.811206E-01 Ha ,    1.309196E+01 eV
 Ehartree   = :     1.586347E+02 Ha ,    4.316671E+03 eV
 Exc_ks     = :    -1.356801E+01 Ha ,   -3.692044E+02 eV
 Enn        = :     9.661364E+01 Ha ,    2.628991E+03 eV
 Etot       = :    -8.063623E+01 Ha ,   -2.194223E+03 eV

[...]

--- !ScfConvergenceWarning
message: |
    nstep 20 was not enough SCF cycles to converge.
...

 scprqt:  WARNING -
  nstep=   20 was not enough SCF cycles to converge;
  maximum energy difference=  7.415E-02 exceeds toldfe=  1.000E-06

 fftdatar_write: About to write data to: o_DS3_DEN with iomode: IO_MODE_FORTRAN
 Integrated electronic and magnetization densities in atomic spheres:
 Radius=ratsph(iatom), smearing ratsm=  0.0000. Diff(up-dn)=approximate z local magnetic moment.
 Atom    Radius    up_density   dn_density  Total(up+dn)  Diff(up-dn)
    1   2.00000     5.104750     5.670581     10.775331    -0.565830
    2   2.00000     2.708085     2.639192      5.347277     0.068894
  Sum:              7.812836     8.309772     16.122608    -0.496937
 Total magnetization (from the atomic spheres):            -0.496937
 Total magnetization (exact up - dn):                      -0.000000

 ----iterations are completed or convergence reached----

 === Gap info ===
Not enough states to calculate the band gap.
 Mean square residual over all n,k,spin=   51.199E-05; max=  15.812E-04
   0.0000  0.0000  0.0000    1  1.58117E-03 kpt; spin; max resid(k); each band:
  5.33E-04 6.83E-04 4.97E-06 4.97E-06 1.58E-03 1.74E-04 1.76E-04 4.70E-04
  1.39E-03 6.45E-04
   0.0000  0.0000  0.0000    2  1.50726E-03 kpt; spin; max resid(k); each band:
  5.03E-04 4.13E-04 4.17E-06 4.17E-06 1.51E-03 3.54E-04 1.83E-04 1.83E-04
  1.30E-03 1.28E-04

   outwf: writing wavefunctions to: o_DS3_WFK with iomode: IO_MODE_FORTRAN_MASTER
 prteigrs : about to open file o_DS3_EIG
 Fermi (or HOMO) energy (hartree) =   0.00534   Average Vxc (hartree)=  -0.13779
 Magnetization (Bohr magneton)=  0.00000000E+00
 Total spin up =  1.00000000E+01   Total spin down =  1.00000000E+01
 Eigenvalues (hartree) for nkpt=   1  k points, SPIN UP:
 kpt#   1, nband= 10, wtk=  1.00000, kpt=  0.0000  0.0000  0.0000 (reduced coord)
  -2.32938   -1.43964   -1.35889   -1.35889   -0.65890   -0.28868   -0.28868   -0.26024
  -0.24927   -0.04996
      occupation numbers for kpt#   1
   1.00000    1.00000    1.00000    1.00000    1.00000    1.00000    1.00000    1.00000
   1.00000    1.00000
 Eigenvalues (hartree) for nkpt=   1  k points, SPIN DOWN:
 kpt#   1, nband= 10, wtk=  1.00000, kpt=  0.0000  0.0000  0.0000 (reduced coord)
  -2.34289   -1.43874   -1.38387   -1.38387   -0.65011   -0.28748   -0.28748   -0.27181
  -0.23845   -0.14064
      occupation numbers for kpt#   1
   1.00000    1.00000    1.00000    1.00000    1.00000    1.00000    1.00000    1.00000
   1.00000    1.00000
 Total charge density [el/Bohr^3]
      Maximum=    9.6217E-01  at reduced coord.    0.2593    0.2593    0.9852
 Next maximum=    9.5343E-01  at reduced coord.    0.2222    0.2593    0.9333
      Minimum=    1.0311E-08  at reduced coord.    0.9630    0.2593    0.5185
 Next minimum=    1.0311E-08  at reduced coord.    0.2593    0.9630    0.5185
   Integrated=    2.0000E+01
 Spin up density      [el/Bohr^3]
      Maximum=    4.9935E-01  at reduced coord.    0.2593    0.2593    0.9852
 Next maximum=    4.9395E-01  at reduced coord.    0.2222    0.2593    0.9852
      Minimum=    0.0000E+00  at reduced coord.    0.0370    0.0000    0.4889
 Next minimum=    0.0000E+00  at reduced coord.    0.7037    0.0000    0.4889
   Integrated=    1.0000E+01
 Spin down density    [el/Bohr^3]
      Maximum=    4.7379E-01  at reduced coord.    0.2222    0.2593    0.9333
 Next maximum=    4.7379E-01  at reduced coord.    0.2593    0.2222    0.9333
      Minimum=    0.0000E+00  at reduced coord.    0.2222    0.0370    0.3778
 Next minimum=    0.0000E+00  at reduced coord.    0.4815    0.0370    0.3778
   Integrated=    1.0000E+01
 Magnetization (spin up - spin down) [el/Bohr^3]
      Maximum=    3.6519E-02  at reduced coord.    0.2593    0.2593    0.9852
 Next maximum=    3.5005E-02  at reduced coord.    0.2222    0.2593    0.9852
      Minimum=   -5.7616E-02  at reduced coord.    0.2593    0.0741    0.9556
 Next minimum=   -5.7616E-02  at reduced coord.    0.0741    0.2593    0.9556
   Integrated=   -1.3484E-07
 Relative magnetization (=zeta, between -1 and 1)
      Maximum=    9.9688E-01  at reduced coord.    0.0741    0.2593    0.7111
 Next maximum=    9.9688E-01  at reduced coord.    0.2593    0.0741    0.7111
      Minimum=   -2.7501E-01  at reduced coord.    0.8889    0.6296    0.9630
 Next minimum=   -2.7501E-01  at reduced coord.    0.6296    0.8889    0.9630

 Cartesian components of stress tensor (hartree/bohr^3)
  sigma(1 1)=  4.40294713E-04  sigma(3 2)=  0.00000000E+00
  sigma(2 2)=  4.40294713E-04  sigma(3 1)=  0.00000000E+00
  sigma(3 3)= -1.92897945E-03  sigma(2 1)=  0.00000000E+00

-Cartesian components of stress tensor (GPa)         [Pressure=  1.0282E+01 GPa]
- sigma(1 1)=  1.29539155E+01  sigma(3 2)=  0.00000000E+00
- sigma(2 2)=  1.29539155E+01  sigma(3 1)=  0.00000000E+00
- sigma(3 3)= -5.67525251E+01  sigma(2 1)=  0.00000000E+00

== END DATASET(S) ==============================================================

 -outvars: echo values of variables after computation  --------

 These variables are accessible in NetCDF format (o_OUT.nc)

            acell      6.0300000000E+00  6.0300000000E+00  3.2970000000E+01 Bohr
              amu      9.59400000E+01  3.20660000E+01
        bs_loband1          0
        bs_loband2          0       0
        bs_loband3          0       0
           diemac      2.00000000E+00
             ecut      2.00000000E+01 Hartree
           etotal1    -9.2106431600E+01
           etotal2    -7.0148747261E+01
           etotal3    -8.0636232130E+01
            fcart1     1.3080880721E-04  1.3552527156E-20 -0.0000000000E+00
                      -6.5404403607E-05 -6.7762635780E-21 -1.4225826843E-05
                      -6.5404403607E-05 -6.7762635780E-21  1.4225826843E-05
            fcart2    -0.0000000000E+00 -0.0000000000E+00 -0.0000000000E+00
            fcart3    -3.3791784142E-23 -5.8529087013E-23 -9.0191688551E-01
                       3.3791784142E-23  5.8529087013E-23  9.0191688551E-01
-          fftalg         112
           ionmov1          2
           ionmov2          0
           ionmov3          0
           istwfk        2
              ixc          11
           jdtset        1    2    3
           kptopt           0
P           mkmem           1
            natom1          3
            natom2          1
            natom3          2
            nband1         20
            nband2         10
            nband3         10
           ndtset           3
            ngfft          27      27     135
             nkpt           1
           nspden1          1
           nspden2          2
           nspden3          2
           nsppol1          1
           nsppol2          2
           nsppol3          2
            nstep          20
             nsym1          4
             nsym2         24
             nsym3         12
            ntime1         20
            ntime2          1
            ntime3          1
           ntypat           2
              occ1     2.000000  2.000000  2.000000  2.000000  2.000000  2.000000
                       2.000000  2.000000  2.000000  2.000000  2.000000  2.000000
                       2.000000  0.000000  0.000000  0.000000  0.000000  0.000000
                       0.000000  0.000000
              occ2     1.000000  1.000000  1.000000  1.000000  1.000000  1.000000
                       1.000000  0.999997  0.010015  0.010015
                       1.000000  1.000000  1.000000  1.000000  1.000000  0.979876
                       0.000049  0.000049  0.000000  0.000000
              occ3     1.000000  1.000000  1.000000  1.000000  1.000000  1.000000
                       1.000000  1.000000  1.000000  1.000000
                       1.000000  1.000000  1.000000  1.000000  1.000000  1.000000
                       1.000000  1.000000  1.000000  1.000000
           occopt1          1
           occopt2          7
           occopt3          7
        optforces1          1
        optforces2          2
        optforces3          2
            rprim      8.6602540378E-01 -5.0000000000E-01  0.0000000000E+00
                       8.6602540378E-01  5.0000000000E-01  0.0000000000E+00
                       0.0000000000E+00  0.0000000000E+00  1.0000000000E+00
          spgroup1         38
          spgroup2        191
          spgroup3        183
           spinat2     0.0000000000E+00  0.0000000000E+00  1.0000000000E+00
           spinat3     0.0000000000E+00  0.0000000000E+00  1.0000000000E+00
                       0.0000000000E+00  0.0000000000E+00  1.0000000000E+00
           strten1    -1.1715536257E-04 -1.1729050065E-04  2.6364100824E-04
                       0.0000000000E+00  0.0000000000E+00  0.0000000000E+00
           strten2     5.0426477098E-04  5.0426477098E-04  2.6548706950E-04
                       0.0000000000E+00  0.0000000000E+00  0.0000000000E+00
           strten3     4.4029471298E-04  4.4029471298E-04 -1.9289794458E-03
                       0.0000000000E+00  0.0000000000E+00  0.0000000000E+00
           symafm1       1    1    1    1
           symafm2       1    1    1    1    1    1    1    1    1    1
                         1    1    1    1    1    1    1    1    1    1
                         1    1    1    1
           symafm3       1    1    1    1    1    1    1    1    1    1
                         1    1
           symrel1     1  0  0   0  1  0   0  0  1       0  1  0   1  0  0   0  0 -1
                       1  0  0   0  1  0   0  0 -1       0  1  0   1  0  0   0  0  1
           symrel2     1  0  0   0  1  0   0  0  1      -1  0  0   0 -1  0   0  0 -1
                      -1  1  0   0  1  0   0  0  1       1 -1  0   0 -1  0   0  0 -1
                       0  1  0  -1  1  0   0  0  1       0 -1  0   1 -1  0   0  0 -1
                      -1  0  0  -1  1  0   0  0  1       1  0  0   1 -1  0   0  0 -1
                      -1  1  0  -1  0  0   0  0  1       1 -1  0   1  0  0   0  0 -1
                       0 -1  0  -1  0  0   0  0  1       0  1  0   1  0  0   0  0 -1
                      -1  0  0   0 -1  0   0  0  1       1  0  0   0  1  0   0  0 -1
                       1 -1  0   0 -1  0   0  0  1      -1  1  0   0  1  0   0  0 -1
                       0 -1  0   1 -1  0   0  0  1       0  1  0  -1  1  0   0  0 -1
                       1  0  0   1 -1  0   0  0  1      -1  0  0  -1  1  0   0  0 -1
                       1 -1  0   1  0  0   0  0  1      -1  1  0  -1  0  0   0  0 -1
                       0  1  0   1  0  0   0  0  1       0 -1  0  -1  0  0   0  0 -1
           symrel3     1  0  0   0  1  0   0  0  1      -1  1  0   0  1  0   0  0  1
                       0  1  0  -1  1  0   0  0  1      -1  0  0  -1  1  0   0  0  1
                      -1  1  0  -1  0  0   0  0  1       0 -1  0  -1  0  0   0  0  1
                      -1  0  0   0 -1  0   0  0  1       1 -1  0   0 -1  0   0  0  1
                       0 -1  0   1 -1  0   0  0  1       1  0  0   1 -1  0   0  0  1
                       1 -1  0   1  0  0   0  0  1       0  1  0   1  0  0   0  0  1
            tnons1     0.0000000  0.0000000  0.0000000     0.0000000  0.0000000  0.0000000
                       0.0000000  0.0000000  0.0000000     0.0000000  0.0000000  0.0000000
            tnons2     0.0000000  0.0000000  0.0000000     0.2000000  0.0000000  0.2000000
                       0.2000000 -0.1000000  0.0000000     0.0000000  0.1000000  0.2000000
                       0.1000000 -0.1000000  0.0000000     0.1000000  0.1000000  0.2000000
                       0.2000000  0.0000000  0.0000000     0.0000000  0.0000000  0.2000000
                       0.2000000 -0.1000000  0.0000000     0.0000000  0.1000000  0.2000000
                       0.1000000  0.1000000  0.0000000     0.1000000 -0.1000000  0.2000000
                       0.2000000  0.0000000  0.0000000     0.0000000  0.0000000  0.2000000
                       0.0000000  0.1000000  0.0000000     0.2000000 -0.1000000  0.2000000
                       0.1000000  0.1000000  0.0000000     0.1000000 -0.1000000  0.2000000
                       0.0000000  0.0000000  0.0000000     0.2000000  0.0000000  0.2000000
                       0.0000000  0.1000000  0.0000000     0.2000000 -0.1000000  0.2000000
                       0.1000000 -0.1000000  0.0000000     0.1000000  0.1000000  0.2000000
            tnons3     0.0000000  0.0000000  0.0000000     0.5000000 -0.2500000  0.0000000
                       0.5000000 -0.2500000  0.0000000    -0.2500000  0.0000000  0.0000000
                      -0.2500000  0.0000000  0.0000000     0.5000000  0.5000000  0.0000000
                       0.5000000  0.5000000  0.0000000     0.0000000 -0.2500000  0.0000000
                       0.0000000 -0.2500000  0.0000000    -0.2500000  0.5000000  0.0000000
                      -0.2500000  0.5000000  0.0000000     0.0000000  0.0000000  0.0000000
           toldfe1     0.00000000E+00 Hartree
           toldfe2     1.00000000E-06 Hartree
           toldfe3     1.00000000E-06 Hartree
           toldff1     5.00000000E-05
           toldff2     0.00000000E+00
           toldff3     0.00000000E+00
           tolmxf1     5.00000000E-04
           tolmxf2     5.00000000E-05
           tolmxf3     5.00000000E-05
            typat1     1  2  2
            typat2     1
            typat3     1  2
           xangst1    -5.8751651461E-04 -3.4424104751E-19 -4.8780604415E-19
                       1.8418304442E+00  0.0000000000E+00 -1.4030925080E+00
                       1.8418304442E+00  0.0000000000E+00  1.4030925080E+00
           xangst2     2.7634338616E-01 -1.5954692839E-01  1.7446972567E+00
           xangst3     1.3817169308E+00  0.0000000000E+00 -7.6730695246E-01
                       1.3817169308E+00  0.0000000000E+00  7.6730695246E-01
            xcart1    -1.1102453112E-03 -6.5052130349E-19 -9.2181982941E-19
                       3.4805551227E+00  0.0000000000E+00 -2.6514605792E+00
                       3.4805551227E+00  0.0000000000E+00  2.6514605792E+00
            xcart2     5.2221331848E-01 -3.0150000000E-01  3.2970000000E+00
            xcart3     2.6110665924E+00  0.0000000000E+00 -1.4500000000E+00
                       2.6110665924E+00  0.0000000000E+00  1.4500000000E+00
             xred1    -1.0630189540E-04 -1.0630189540E-04 -2.7959351817E-20
                       3.3325032123E-01  3.3325032123E-01 -8.0420399734E-02
                       3.3325032123E-01  3.3325032123E-01  8.0420399734E-02
             xred2     1.0000000000E-01  6.9388939039E-18  1.0000000000E-01
             xred3     2.5000000000E-01  2.5000000000E-01 -4.3979375190E-02
                       2.5000000000E-01  2.5000000000E-01  4.3979375190E-02
            znucl       42.00000   16.00000

 Suggested references for the acknowledgment of ABINIT usage.

 Calculation completed.
.Delivered   5 WARNINGs and   5 COMMENTs to log file.

--- !FinalSummary
program: abinit
version: 9.6.2
start_datetime: Wed Dec 14 22:20:05 2022
end_datetime: Wed Dec 14 22:20:50 2022
overall_cpu_time:          43.4
overall_wall_time:          45.8
exit_requested_by_user: no
timelimit: 0
pseudos:
    Mo  : 228091cb5782e08cb8d68936b3c7e57b
    S   : bfa270bf1631b0df1a1d98e9ab044d60
usepaw: 0
mpi_procs: 1
omp_threads: 1
num_warnings: 5
num_comments: 5
...