.Version 9.6.2 of ABINIT

 ABINIT is a project of the Universite Catholique de Louvain,
 Corning Inc. and other collaborators, see ~abinit/doc/developers/contributors.txt .
 acknowledgments of the ABINIT effort.

.Starting date : Sat 12 Nov 2022.
- ( at 09h47 )

- input  file    -> tbase
- output file    -> tbase.abo
- root for input  files -> i
- root for output files -> o

 Symmetries : space group P-6 m 2 (#187); Bravais hP (primitive hexag.)
     intxc =       0    ionmov =       0      iscf =       7    lmnmax =       6
     lnmax =       6     mgfft =     135  mpssoang =       3    mqgrid =    6638
     natom =       3  nloc_mem =       1    nspden =       1   nspinor =       1
    nsppol =       1      nsym =      12    n1xccc =    2501    ntypat =       2
    occopt =       1   xclevel =       2
-    mband =          14        mffmem =           1         mkmem =           1
       mpw =        2194          nfft =       98415          nkpt =           1
  Rough estimation (10% accuracy) of disk space for files :

------------- Echo of variables that govern the present computation ------------
-
- outvars: echo of selected default values
-   iomode0 =  0 , fftalg0 =112 , wfoptalg0 =  0
-
- outvars: echo of global parameters not present in the input file
-  max_nthreads =    0
-
 -outvars: echo values of preprocessed input variables --------
            acell      6.0300000000E+00  6.0300000000E+00  3.2970000000E+01 Bohr
              amu      9.59400000E+01  3.20660000E+01
           diemac      2.00000000E+00
             ecut      2.00000000E+01 Hartree
-          fftalg         112
           istwfk        2
              ixc          11
           kptopt           0
P           mkmem           1
            natom           3
            nband          14
            ngfft          27      27     135
             nkpt           1
             nsym          12
           ntypat           2
              occ      2.000000  2.000000  2.000000  2.000000  2.000000  2.000000
                       2.000000  2.000000  2.000000  2.000000  2.000000  2.000000
                       2.000000  0.000000
            rprim      8.6602540378E-01 -5.0000000000E-01  0.0000000000E+00
                       8.6602540378E-01  5.0000000000E-01  0.0000000000E+00
                       0.0000000000E+00  0.0000000000E+00  1.0000000000E+00
          spgroup         187
           symrel      1  0  0   0  1  0   0  0  1       1 -1  0   0 -1  0   0  0 -1
                       0 -1  0   1 -1  0   0  0 -1      -1  0  0  -1  1  0   0  0  1
                      -1  1  0  -1  0  0   0  0  1       0  1  0   1  0  0   0  0 -1
                       1  0  0   0  1  0   0  0 -1       1 -1  0   0 -1  0   0  0  1
                       0 -1  0   1 -1  0   0  0  1      -1  0  0  -1  1  0   0  0 -1
                      -1  1  0  -1  0  0   0  0 -1       0  1  0   1  0  0   0  0  1
           toldfe      1.00000000E-06 Hartree
            typat      1  2  2
           xangst      0.0000000000E+00  0.0000000000E+00  0.0000000000E+00
                       1.8422892411E+00  0.0000000000E+00 -1.7098033116E+00
                       1.8422892411E+00  0.0000000000E+00  1.7098033116E+00
            xcart      0.0000000000E+00  0.0000000000E+00  0.0000000000E+00
                       3.4814221232E+00  0.0000000000E+00 -3.2310600000E+00
                       3.4814221232E+00  0.0000000000E+00  3.2310600000E+00
             xred      0.0000000000E+00  0.0000000000E+00  0.0000000000E+00
                       3.3333333333E-01  3.3333333333E-01 -9.8000000000E-02
                       3.3333333333E-01  3.3333333333E-01  9.8000000000E-02
            znucl       42.00000   16.00000

 chkinp: Checking input parameters for consistency.

== DATASET  1 ==================================================================
-   mpi_nproc: 1, omp_nthreads: -1 (-1 if OMP is not activated)

--- !DatasetInfo
iteration_state: {dtset: 1, }
dimensions: {natom: 3, nkpt: 1, mband: 14, nsppol: 1, nspinor: 1, nspden: 1, mpw: 2194, }
cutoff_energies: {ecut:  20.0, pawecutdg:  -1.0, }
electrons: {nelect:   2.60000000E+01, charge:   0.00000000E+00, occopt:   1.00000000E+00, tsmear:   1.00000000E-02, }
meta: {optdriver: 0, ionmov: 0, optcell: 0, iscf: 7, paral_kgb: 0, }
...

 Real(R)+Recip(G) space primitive vectors, cartesian coordinates (Bohr,Bohr^-1):
 R(1)=  5.2221332 -3.0150000  0.0000000  G(1)=  0.0957463 -0.1658375  0.0000000
 R(2)=  5.2221332  3.0150000  0.0000000  G(2)=  0.0957463  0.1658375  0.0000000
 R(3)=  0.0000000  0.0000000 32.9700000  G(3)=  0.0000000  0.0000000  0.0303306
 Unit cell volume ucvol=  1.0382076E+03 bohr^3
 Angles (23,13,12)=  9.00000000E+01  9.00000000E+01  6.00000000E+01 degrees

 getcut: wavevector=  0.0000  0.0000  0.0000  ngfft=  27  27 135
         ecut(hartree)=     20.000   => boxcut(ratio)=   2.01886

--- Pseudopotential description ------------------------------------------------
- pspini: atom type   1  psp file is Mo.psp8
- pspatm: opening atomic psp file    Mo.psp8
- Mo    ONCVPSP-3.2.3.1  r_core=   1.45541   1.45541   1.35488
- 42.00000  14.00000    170510                znucl, zion, pspdat
    8   11    2    4       600   0.00000      pspcod,pspxc,lmax,lloc,mmax,r2well
    5.99000000000000    3.00000000000000    0.00000000000000   rchrg,fchrg,qchrg
     nproj     2     2     2
     extension_switch     1
  pspatm : epsatm=   15.95693586
         --- l  ekb(1:nproj) -->
             0   13.833287    1.350687
             1    8.015347    1.134034
             2    2.765699    0.969071
 pspatm: atomic psp has been read  and splines computed

- pspini: atom type   2  psp file is S.psp8
- pspatm: opening atomic psp file    S.psp8
- S     ONCVPSP-3.2.3.1  r_core=   1.45376   1.45376   1.61851
- 16.00000   6.00000    170504                znucl, zion, pspdat
    8   11    2    4       600   0.00000      pspcod,pspxc,lmax,lloc,mmax,r2well
    5.99000000000000    6.00000000000000    0.00000000000000   rchrg,fchrg,qchrg
     nproj     2     2     2
     extension_switch     1
  pspatm : epsatm=    9.01821879
         --- l  ekb(1:nproj) -->
             0    6.763951    0.574108
             1    3.227080    0.887329
             2   -3.547662   -0.986524
 pspatm: atomic psp has been read  and splines computed

   8.83827710E+02                                ecore*ucvol(ha*bohr**3)

_setup2: Arith. and geom. avg. npw (full set) are    4387.000    4387.000

--- !BeginCycle
iteration_state: {dtset: 1, }
solver: {iscf: 7, nstep: 30, nline: 4, wfoptalg: 0, }
tolerances: {toldfe: 1.00E-06, }
...

     iter   Etot(hartree)      deltaE(h)  residm     vres2
 ETOT  1  -91.721058849940    -9.172E+01 3.742E-02 1.203E+03
 ETOT  2  -86.947271545860     4.774E+00 2.074E-03 4.591E+04
 ETOT  3  -91.796098306556    -4.849E+00 7.863E-03 2.166E+03
 ETOT  4  -92.038888237495    -2.428E-01 1.459E-03 6.952E+01
 ETOT  5  -92.051775654810    -1.289E-02 8.738E-05 4.304E+00
 ETOT  6  -92.052387127005    -6.115E-04 3.302E-05 1.713E+00
 ETOT  7  -92.051919013229     4.681E-04 2.360E-05 5.945E+00
 ETOT  8  -92.052443942834    -5.249E-04 1.304E-05 7.369E-02
 ETOT  9  -92.052455362270    -1.142E-05 1.288E-05 1.541E-02
 ETOT 10  -92.052455517673    -1.554E-07 9.100E-06 3.609E-03
 ETOT 11  -92.052456079351    -5.617E-07 8.106E-06 2.035E-04

 At SCF step   11, etot is converged :
  for the second time, diff in etot=  5.617E-07 < toldfe=  1.000E-06

 Cartesian components of stress tensor (hartree/bohr^3)
  sigma(1 1)= -9.82138971E-05  sigma(3 2)=  0.00000000E+00
  sigma(2 2)= -9.82138971E-05  sigma(3 1)=  0.00000000E+00
  sigma(3 3)=  7.24019255E-04  sigma(2 1)=  0.00000000E+00

--- !ResultsGS
iteration_state: {dtset: 1, }
comment   : Summary of ground state results
lattice_vectors:
- [  5.2221332,  -3.0150000,   0.0000000, ]
- [  5.2221332,   3.0150000,   0.0000000, ]
- [  0.0000000,   0.0000000,  32.9700000, ]
lattice_lengths: [   6.03000,    6.03000,   32.97000, ]
lattice_angles: [ 90.000,  90.000,  60.000, ] # degrees, (23, 13, 12)
lattice_volume:   1.0382076E+03
convergence: {deltae: -5.617E-07, res2:  2.035E-04, residm:  8.106E-06, diffor: null, }
etotal    :  -9.20524561E+01
entropy   :   0.00000000E+00
fermie    :  -5.63718031E-02
cartesian_stress_tensor: # hartree/bohr^3
- [ -9.82138971E-05,   0.00000000E+00,   0.00000000E+00, ]
- [  0.00000000E+00,  -9.82138971E-05,   0.00000000E+00, ]
- [  0.00000000E+00,   0.00000000E+00,   7.24019255E-04, ]
pressure_GPa:  -5.1741E+00
xred      :
- [  0.0000E+00,   0.0000E+00,   0.0000E+00, Mo]
- [  3.3333E-01,   3.3333E-01,  -9.8000E-02,  S]
- [  3.3333E-01,   3.3333E-01,   9.8000E-02,  S]
cartesian_forces: # hartree/bohr
- [ -0.00000000E+00,  -0.00000000E+00,  -4.62592927E-18, ]
- [ -1.64998946E-27,  -8.57359673E-27,   7.38868284E-02, ]
- [  1.64998946E-27,   8.57359673E-27,  -7.38868284E-02, ]
force_length_stats: {min:   4.62592927E-18, max:   7.38868284E-02, mean:   4.92578856E-02, }
...

 Integrated electronic density in atomic spheres:
 Atom  Sphere_radius  Integrated_density
    1        2.00000         10.65144767
    2        2.00000          3.89056621
    3        2.00000          3.89056621

 ----iterations are completed or convergence reached----

 Mean square residual over all n,k,spin=   57.988E-08; max=  81.064E-07
 reduced coordinates (array xred) for    3 atoms
       0.000000000000      0.000000000000      0.000000000000
       0.333333333333      0.333333333333     -0.098000000000
       0.333333333333      0.333333333333      0.098000000000
 rms dE/dt=  1.1484E+00; max dE/dt=  2.4360E+00; dE/dt below (all hartree)
    1       0.000000000000      0.000000000000      0.000000000000
    2      -0.000000000000      0.000000000000     -2.436048733159
    3       0.000000000000     -0.000000000000      2.436048733159

 cartesian coordinates (angstrom) at end:
    1      0.00000000000000     0.00000000000000     0.00000000000000
    2      1.84228924108556     0.00000000000000    -1.70980331158681
    3      1.84228924108556     0.00000000000000     1.70980331158681

 cartesian forces (hartree/bohr) at end:
    1     -0.00000000000000    -0.00000000000000    -0.00000000000000
    2     -0.00000000000000    -0.00000000000000     0.07388682842458
    3      0.00000000000000     0.00000000000000    -0.07388682842458
 frms,max,avg= 3.4830585E-02 7.3886828E-02   0.000E+00  0.000E+00  0.000E+00 h/b

 cartesian forces (eV/Angstrom) at end:
    1     -0.00000000000000    -0.00000000000000    -0.00000000000000
    2     -0.00000000000000    -0.00000000000000     3.79941316032198
    3      0.00000000000000     0.00000000000000    -3.79941316032198
 frms,max,avg= 1.7910605E+00 3.7994132E+00   0.000E+00  0.000E+00  0.000E+00 e/A
 length scales=  6.030000000000  6.030000000000 32.970000000000 bohr
              =  3.190938567798  3.190938567798 17.446972567212 angstroms
 prteigrs : about to open file o_EIG
 Fermi (or HOMO) energy (hartree) =  -0.05637   Average Vxc (hartree)=  -0.17159
 Eigenvalues (hartree) for nkpt=   1  k points:
 kpt#   1, nband= 14, wtk=  1.00000, kpt=  0.0000  0.0000  0.0000 (reduced coord)
  -2.23960   -1.28725   -1.28626   -1.28626   -0.57505   -0.54719   -0.24353   -0.14139
  -0.11637   -0.11637   -0.09145   -0.09145   -0.05637    0.03322

--- !EnergyTerms
iteration_state     : {dtset: 1, }
comment             : Components of total free energy in Hartree
kinetic             :  3.03055306779939E+01
hartree             :  2.17192752100111E+02
xc                  : -1.66501106524689E+01
Ewald energy        :  1.40344379166645E+02
psp_core            :  8.51301522853731E-01
local_psp           : -4.75651893380744E+02
non_local_psp       :  1.15555844862587E+01
total_energy        : -9.20524560793512E+01
total_energy_eV     : -2.50487471763102E+03
band_energy         : -1.61570910649795E+01
...

 Cartesian components of stress tensor (hartree/bohr^3)
  sigma(1 1)= -9.82138971E-05  sigma(3 2)=  0.00000000E+00
  sigma(2 2)= -9.82138971E-05  sigma(3 1)=  0.00000000E+00
  sigma(3 3)=  7.24019255E-04  sigma(2 1)=  0.00000000E+00

-Cartesian components of stress tensor (GPa)         [Pressure= -5.1741E+00 GPa]
- sigma(1 1)= -2.88955213E+00  sigma(3 2)=  0.00000000E+00
- sigma(2 2)= -2.88955213E+00  sigma(3 1)=  0.00000000E+00
- sigma(3 3)=  2.13013783E+01  sigma(2 1)=  0.00000000E+00

== END DATASET(S) ==============================================================

 -outvars: echo values of variables after computation  --------
            acell      6.0300000000E+00  6.0300000000E+00  3.2970000000E+01 Bohr
              amu      9.59400000E+01  3.20660000E+01
           diemac      2.00000000E+00
             ecut      2.00000000E+01 Hartree
           etotal     -9.2052456079E+01
            fcart     -0.0000000000E+00 -0.0000000000E+00 -4.6259292693E-18
                      -1.6499894601E-27 -8.5735967304E-27  7.3886828425E-02
                       1.6499894601E-27  8.5735967304E-27 -7.3886828425E-02
-          fftalg         112
           istwfk        2
              ixc          11
           kptopt           0
P           mkmem           1
            natom           3
            nband          14
            ngfft          27      27     135
             nkpt           1
             nsym          12
           ntypat           2
              occ      2.000000  2.000000  2.000000  2.000000  2.000000  2.000000
                       2.000000  2.000000  2.000000  2.000000  2.000000  2.000000
                       2.000000  0.000000
            rprim      8.6602540378E-01 -5.0000000000E-01  0.0000000000E+00
                       8.6602540378E-01  5.0000000000E-01  0.0000000000E+00
                       0.0000000000E+00  0.0000000000E+00  1.0000000000E+00
          spgroup         187
           strten     -9.8213897113E-05 -9.8213897113E-05  7.2401925468E-04
                       0.0000000000E+00  0.0000000000E+00  0.0000000000E+00
           symrel      1  0  0   0  1  0   0  0  1       1 -1  0   0 -1  0   0  0 -1
                       0 -1  0   1 -1  0   0  0 -1      -1  0  0  -1  1  0   0  0  1
                      -1  1  0  -1  0  0   0  0  1       0  1  0   1  0  0   0  0 -1
                       1  0  0   0  1  0   0  0 -1       1 -1  0   0 -1  0   0  0  1
                       0 -1  0   1 -1  0   0  0  1      -1  0  0  -1  1  0   0  0 -1
                      -1  1  0  -1  0  0   0  0 -1       0  1  0   1  0  0   0  0  1
           toldfe      1.00000000E-06 Hartree
            typat      1  2  2
           xangst      0.0000000000E+00  0.0000000000E+00  0.0000000000E+00
                       1.8422892411E+00  0.0000000000E+00 -1.7098033116E+00
                       1.8422892411E+00  0.0000000000E+00  1.7098033116E+00
            xcart      0.0000000000E+00  0.0000000000E+00  0.0000000000E+00
                       3.4814221232E+00  0.0000000000E+00 -3.2310600000E+00
                       3.4814221232E+00  0.0000000000E+00  3.2310600000E+00
             xred      0.0000000000E+00  0.0000000000E+00  0.0000000000E+00
                       3.3333333333E-01  3.3333333333E-01 -9.8000000000E-02
                       3.3333333333E-01  3.3333333333E-01  9.8000000000E-02
            znucl       42.00000   16.00000

- Timing analysis has been suppressed with timopt=0

 Suggested references for the acknowledgment of ABINIT usage.

 Calculation completed.
.Delivered   1 WARNINGs and   2 COMMENTs to log file.