.Version 9.6.2 of ABINIT

 ABINIT is a project of the Universite Catholique de Louvain,
 Corning Inc. and other collaborators, see ~abinit/doc/developers/contributors.txt .
 acknowledgments of the ABINIT effort.

.Starting date : Sat 19 Nov 2022.
- ( at 11h27 )

- input  file    -> band
- output file    -> band.abo
- root for input  files -> i
- root for output files -> o

 DATASET    1 : space group P-6 m 2 (#187); Bravais hP (primitive hexag.)
     intxc =       0    ionmov =       0      iscf =       7    lmnmax =       6
     lnmax =       6     mgfft =     135  mpssoang =       3    mqgrid =    6638
     natom =       3  nloc_mem =       1    nspden =       1   nspinor =       1
    nsppol =       1      nsym =      12    n1xccc =    2501    ntypat =       2
    occopt =       1   xclevel =       2
-    mband =          14        mffmem =           1         mkmem =         508
       mpw =        4503          nfft =       98415          nkpt =         508
  Rough estimation (10% accuracy) of disk space for files :

 DATASET    2 : space group P-6 m 2 (#187); Bravais hP (primitive hexag.)
     intxc =       0    ionmov =       0      iscf =      -2    lmnmax =       6
     lnmax =       6     mgfft =     135  mpssoang =       3    mqgrid =    6638
     natom =       3  nloc_mem =       1    nspden =       1   nspinor =       1
    nsppol =       1      nsym =      12    n1xccc =    2501    ntypat =       2
    occopt =       1   xclevel =       2
-    mband =          14        mffmem =           1         mkmem =          38
       mpw =        4483          nfft =       98415          nkpt =          38
  Rough estimation (10% accuracy) of disk space for files :

------------- Echo of variables that govern the present computation ------------
-
- outvars: echo of selected default values
-   iomode0 =  0 , fftalg0 =112 , wfoptalg0 =  0
-
- outvars: echo of global parameters not present in the input file
-  max_nthreads =    0
-
 -outvars: echo values of preprocessed input variables --------
            acell      6.0300000000E+00  6.0300000000E+00  3.2970000000E+01 Bohr
              amu      9.59400000E+01  3.20660000E+01
      chksymbreak           0
           diemac      1.20000000E+01
             ecut      2.00000000E+01 Hartree
           enunit1          0
           enunit2          1
-          fftalg         112
           getden1          0
           getden2         -1
             iscf1          7
             iscf2         -2
           istwfk2       3    0    0    0    0    0    0    0    0    0
                         2    0    0    0    0    0    0    0    0    0
                         8    0    0    0    0    0    0    0    0    0
                         0    0    0    0    0    0    0    0
                       outvar_i_n : Printing only first  50 k-points.
              ixc          11
           jdtset        1    2
              kpt1    -8.33333333E-02  0.00000000E+00  0.00000000E+00
                      -2.50000000E-01  0.00000000E+00  0.00000000E+00
                      -1.66666667E-01  0.00000000E+00  1.56250000E-02
                      -8.33333333E-02  0.00000000E+00  3.12500000E-02
                      -1.66666667E-01  8.33333333E-02  0.00000000E+00
                      -8.33333333E-02  8.33333333E-02  1.56250000E-02
                      -4.16666667E-01  0.00000000E+00  0.00000000E+00
                      -3.33333333E-01  0.00000000E+00  1.56250000E-02
                      -2.50000000E-01  0.00000000E+00  3.12500000E-02
                      -1.66666667E-01  0.00000000E+00  4.68750000E-02
                      -8.33333333E-02  0.00000000E+00  6.25000000E-02
                      -3.33333333E-01  8.33333333E-02  0.00000000E+00
                      -2.50000000E-01  8.33333333E-02  1.56250000E-02
                      -1.66666667E-01  8.33333333E-02  3.12500000E-02
                      -8.33333333E-02  8.33333333E-02  4.68750000E-02
                      -2.50000000E-01  1.66666667E-01  0.00000000E+00
                      -1.66666667E-01  1.66666667E-01  1.56250000E-02
                       5.00000000E-01  0.00000000E+00  1.56250000E-02
                      -4.16666667E-01  0.00000000E+00  3.12500000E-02
                      -3.33333333E-01  0.00000000E+00  4.68750000E-02
                      -2.50000000E-01  0.00000000E+00  6.25000000E-02
                      -1.66666667E-01  0.00000000E+00  7.81250000E-02
                      -8.33333333E-02  0.00000000E+00  9.37500000E-02
                       5.00000000E-01  8.33333333E-02  0.00000000E+00
                      -4.16666667E-01  8.33333333E-02  1.56250000E-02
                      -3.33333333E-01  8.33333333E-02  3.12500000E-02
                      -2.50000000E-01  8.33333333E-02  4.68750000E-02
                      -1.66666667E-01  8.33333333E-02  6.25000000E-02
                      -8.33333333E-02  8.33333333E-02  7.81250000E-02
                      -4.16666667E-01  1.66666667E-01  0.00000000E+00
                      -3.33333333E-01  1.66666667E-01  1.56250000E-02
                      -2.50000000E-01  1.66666667E-01  3.12500000E-02
                      -1.66666667E-01  1.66666667E-01  4.68750000E-02
                      -3.33333333E-01  2.50000000E-01  0.00000000E+00
                      -2.50000000E-01  2.50000000E-01  1.56250000E-02
                       5.00000000E-01  0.00000000E+00  4.68750000E-02
                      -4.16666667E-01  0.00000000E+00  6.25000000E-02
                      -3.33333333E-01  0.00000000E+00  7.81250000E-02
                      -2.50000000E-01  0.00000000E+00  9.37500000E-02
                      -1.66666667E-01  0.00000000E+00  1.09375000E-01
                      -8.33333333E-02  0.00000000E+00  1.25000000E-01
                       3.33333333E-01  8.33333333E-02  0.00000000E+00
                       4.16666667E-01  8.33333333E-02  1.56250000E-02
                       5.00000000E-01  8.33333333E-02  3.12500000E-02
                      -4.16666667E-01  8.33333333E-02  4.68750000E-02
                      -3.33333333E-01  8.33333333E-02  6.25000000E-02
                      -2.50000000E-01  8.33333333E-02  7.81250000E-02
                      -1.66666667E-01  8.33333333E-02  9.37500000E-02
                      -8.33333333E-02  8.33333333E-02  1.09375000E-01
                      -4.16666667E-01  1.66666667E-01  3.12500000E-02
              kpt2     5.00000000E-01  0.00000000E+00  0.00000000E+00
                       4.50000000E-01  0.00000000E+00  0.00000000E+00
                       4.00000000E-01  0.00000000E+00  0.00000000E+00
                       3.50000000E-01  0.00000000E+00  0.00000000E+00
                       3.00000000E-01  0.00000000E+00  0.00000000E+00
                       2.50000000E-01  0.00000000E+00  0.00000000E+00
                       2.00000000E-01  0.00000000E+00  0.00000000E+00
                       1.50000000E-01  0.00000000E+00  0.00000000E+00
                       1.00000000E-01  0.00000000E+00  0.00000000E+00
                       5.00000000E-02  0.00000000E+00  0.00000000E+00
                       0.00000000E+00  0.00000000E+00  0.00000000E+00
                       0.00000000E+00  5.00000000E-02  5.00000000E-02
                       0.00000000E+00  1.00000000E-01  1.00000000E-01
                       0.00000000E+00  1.50000000E-01  1.50000000E-01
                       0.00000000E+00  2.00000000E-01  2.00000000E-01
                       0.00000000E+00  2.50000000E-01  2.50000000E-01
                       0.00000000E+00  3.00000000E-01  3.00000000E-01
                       0.00000000E+00  3.50000000E-01  3.50000000E-01
                       0.00000000E+00  4.00000000E-01  4.00000000E-01
                       0.00000000E+00  4.50000000E-01  4.50000000E-01
                       0.00000000E+00  5.00000000E-01  5.00000000E-01
                       5.88235294E-02  5.29411765E-01  5.29411765E-01
                       1.17647059E-01  5.58823529E-01  5.58823529E-01
                       1.76470588E-01  5.88235294E-01  5.88235294E-01
                       2.35294118E-01  6.17647059E-01  6.17647059E-01
                       2.94117647E-01  6.47058824E-01  6.47058824E-01
                       3.52941176E-01  6.76470588E-01  6.76470588E-01
                       4.11764706E-01  7.05882353E-01  7.05882353E-01
                       4.70588235E-01  7.35294118E-01  7.35294118E-01
                       5.29411765E-01  7.64705882E-01  7.64705882E-01
                       5.88235294E-01  7.94117647E-01  7.94117647E-01
                       6.47058824E-01  8.23529412E-01  8.23529412E-01
                       7.05882353E-01  8.52941176E-01  8.52941176E-01
                       7.64705882E-01  8.82352941E-01  8.82352941E-01
                       8.23529412E-01  9.11764706E-01  9.11764706E-01
                       8.82352941E-01  9.41176471E-01  9.41176471E-01
                       9.41176471E-01  9.70588235E-01  9.70588235E-01
                       1.00000000E+00  1.00000000E+00  1.00000000E+00
                       outvar_i_n : Printing only first  50 k-points.
           kptopt1          1
           kptopt2         -3
         kptrlatt       12    0    0      0   12    0     -6    6   32
          kptrlen1     7.23600000E+01
          kptrlen2     3.00000000E+01
P           mkmem1        508
P           mkmem2         38
            natom           3
            nband1         14
            nband2         14
           nbdbuf1          0
           nbdbuf2          2
           ndtset           2
           ndivsm1          0
           ndivsm2         10
            ngfft          27      27     135
             nkpt1        508
             nkpt2         38
            nstep          20
             nsym          12
           ntypat           2
              occ      2.000000  2.000000  2.000000  2.000000  2.000000  2.000000
                       2.000000  2.000000  2.000000  2.000000  2.000000  2.000000
                       2.000000  0.000000
            rprim      8.6602540378E-01 -5.0000000000E-01  0.0000000000E+00
                       8.6602540378E-01  5.0000000000E-01  0.0000000000E+00
                       0.0000000000E+00  0.0000000000E+00  1.0000000000E+00
           shiftk1     0.00000000E+00  0.00000000E+00  5.00000000E-01
           shiftk2     5.00000000E-01  5.00000000E-01  5.00000000E-01
          spgroup         187
           symrel      1  0  0   0  1  0   0  0  1       1 -1  0   0 -1  0   0  0 -1
                       0 -1  0   1 -1  0   0  0 -1      -1  0  0  -1  1  0   0  0  1
                      -1  1  0  -1  0  0   0  0  1       0  1  0   1  0  0   0  0 -1
                       1  0  0   0  1  0   0  0 -1       1 -1  0   0 -1  0   0  0  1
                       0 -1  0   1 -1  0   0  0  1      -1  0  0  -1  1  0   0  0 -1
                      -1  1  0  -1  0  0   0  0 -1       0  1  0   1  0  0   0  0  1
           toldfe1     1.00000000E-04 Hartree
           toldfe2     0.00000000E+00 Hartree
           tolwfr1     0.00000000E+00
           tolwfr2     1.00000000E-12
            typat      1  2  2
[...]
  -4.71693   -3.38160   -3.01380   -2.06295   -1.86516    0.89068
 kpt#  19, nband= 14, wtk=  1.00000, kpt=  0.0000  0.4000  0.4000 (reduced coord)
 -62.02983  -36.24833  -36.10811  -36.00404  -13.12194  -12.96697   -6.14583   -5.41807
  -4.74139   -3.51911   -3.13122   -1.94957   -1.75173    1.12636
 kpt#  20, nband= 14, wtk=  1.00000, kpt=  0.0000  0.4500  0.4500 (reduced coord)
 -62.02800  -36.27141  -36.10303  -36.01098  -12.95405  -12.88081   -6.36844   -5.61804
  -4.77533   -3.60368   -3.19713   -1.81798   -1.69055    1.24662
 kpt#  21, nband= 14, wtk=  1.00000, kpt=  0.0000  0.5000  0.5000 (reduced coord)
 -62.02661  -36.28043  -36.10231  -36.00996  -12.89358  -12.85025   -6.44947   -5.68819
  -4.79078   -3.63213   -3.21842   -1.76127   -1.67164    1.39385
 kpt#  22, nband= 14, wtk=  1.00000, kpt=  0.0588  0.5294  0.5294 (reduced coord)
 -62.02540  -36.27737  -36.10070  -36.01634  -12.87724  -12.83864   -6.40163   -5.69228
  -4.77015   -3.70769   -3.19064   -2.11931   -1.48195    1.16923
 kpt#  23, nband= 14, wtk=  1.00000, kpt=  0.1176  0.5588  0.5588 (reduced coord)
 -62.02969  -36.26827  -36.09967  -36.04208  -12.83134  -12.80631   -6.26161   -5.71132
  -4.71543   -3.85408   -3.16710   -2.67400   -1.36263    1.07071
 kpt#  24, nband= 14, wtk=  1.00000, kpt=  0.1765  0.5882  0.5882 (reduced coord)
 -62.02798  -36.25069  -36.09714  -36.07331  -12.76539  -12.76049   -6.03918   -5.75825
  -4.64530   -3.96566   -3.30965   -3.19947   -1.27398    1.02188
 kpt#  25, nband= 14, wtk=  1.00000, kpt=  0.2353  0.6176  0.6176 (reduced coord)
 -62.03318  -36.22932  -36.11685  -36.09587  -12.71303  -12.69561   -5.83187   -5.75421
  -4.59951   -3.99069   -3.91850   -3.29176   -1.17392    1.02195
 kpt#  26, nband= 14, wtk=  1.00000, kpt=  0.2941  0.6471  0.6471 (reduced coord)
 -62.03435  -36.20426  -36.15408  -36.09475  -12.67877  -12.64370   -5.89918   -5.45601
  -4.69454   -4.29062   -3.94247   -3.40737   -1.07729    0.84213
 kpt#  27, nband= 14, wtk=  1.00000, kpt=  0.3529  0.6765  0.6765 (reduced coord)
 -62.03397  -36.19593  -36.16332  -36.09484  -12.67315  -12.63499   -5.91118   -5.38222
  -4.75877   -4.32562   -3.92658   -3.43314   -1.05869    0.91810
 kpt#  28, nband= 14, wtk=  1.00000, kpt=  0.4118  0.7059  0.7059 (reduced coord)
 -62.03317  -36.21358  -36.13527  -36.09453  -12.70791  -12.69285   -5.82723   -5.58416
  -4.52060   -4.22232   -4.02625   -3.27896   -1.16723    0.89248
 kpt#  29, nband= 14, wtk=  1.00000, kpt=  0.4706  0.7353  0.7353 (reduced coord)
 -62.03384  -36.21998  -36.10299  -36.09857  -12.82989  -12.78730   -5.70644   -5.62688
  -4.43199   -4.14727   -3.88980   -3.03391   -1.35318    0.82608
 kpt#  30, nband= 14, wtk=  1.00000, kpt=  0.5294  0.7647  0.7647 (reduced coord)
 -62.02993  -36.20726  -36.10441  -36.06798  -13.04180  -12.90679   -5.68372   -5.31045
  -4.45763   -4.21987   -3.47442   -2.76692   -1.53255    0.67873
 kpt#  31, nband= 14, wtk=  1.00000, kpt=  0.5882  0.7941  0.7941 (reduced coord)
 -62.03012  -36.18136  -36.11185  -36.03778  -13.30880  -13.05518   -5.54635   -4.90214
  -4.54305   -4.20742   -3.07444   -2.51425   -1.66324    0.48161
 kpt#  32, nband= 14, wtk=  1.00000, kpt=  0.6471  0.8235  0.8235 (reduced coord)
 -62.03206  -36.14246  -36.12293  -36.00979  -13.60331  -13.21814   -5.40113   -4.60644
  -4.47730   -4.05215   -2.72834   -2.30025   -1.76086    0.36884
 kpt#  33, nband= 14, wtk=  1.00000, kpt=  0.7059  0.8529  0.8529 (reduced coord)
 -62.03848  -36.13272  -36.10124  -35.98670  -13.89771  -13.38099   -5.44706   -4.45536
  -4.17672   -3.65221   -2.50967   -2.14012   -1.82036    0.39877
 kpt#  34, nband= 14, wtk=  1.00000, kpt=  0.7647  0.8824  0.8824 (reduced coord)
 -62.04454  -36.14383  -36.05513  -35.96684  -14.16820  -13.53113   -5.66409   -4.10552
  -3.93396   -3.13620   -2.52405   -2.03921   -1.75780    0.54317
 kpt#  35, nband= 14, wtk=  1.00000, kpt=  0.8235  0.9118  0.9118 (reduced coord)
 -62.04249  -36.15032  -36.00607  -35.94902  -14.39626  -13.65803   -5.91064   -3.70194
  -3.67887   -2.67781   -2.65833   -1.99285   -1.64989    0.78086
 kpt#  36, nband= 14, wtk=  1.00000, kpt=  0.8824  0.9412  0.9412 (reduced coord)
 -62.04237  -36.15696  -35.96720  -35.93524  -14.56858  -13.75402   -6.11892   -3.42776
  -3.33463   -2.83597   -2.29975   -1.99092   -1.58960    1.13140
 kpt#  37, nband= 14, wtk=  1.00000, kpt=  0.9412  0.9706  0.9706 (reduced coord)
 -62.03878  -36.16150  -35.93580  -35.92722  -14.67556  -13.81373   -6.25563   -3.22961
  -3.07408   -2.94318   -2.09300   -2.01321   -1.57147    1.39583
 kpt#  38, nband= 14, wtk=  1.00000, kpt=  1.0000  1.0000  1.0000 (reduced coord)
 -62.04285  -36.16390  -35.92792  -35.92792  -14.71207  -13.83405   -6.30318   -3.15121
  -2.98084   -2.98084   -2.02830   -2.02830   -1.56961    1.49206

== END DATASET(S) ==============================================================

 -outvars: echo values of variables after computation  --------
            acell      6.0300000000E+00  6.0300000000E+00  3.2970000000E+01 Bohr
              amu      9.59400000E+01  3.20660000E+01
      chksymbreak           0
           diemac      1.20000000E+01
             ecut      2.00000000E+01 Hartree
           enunit1          0
           enunit2          1
           etotal1    -9.2359679941E+01
            fcart1    -0.0000000000E+00 -9.5262185894E-28 -0.0000000000E+00
                      -4.1249736502E-28  1.1907773237E-27  4.3251682666E-02
                       4.1249736502E-28 -2.3815546473E-28 -4.3251682666E-02
-          fftalg         112
           getden1          0
           getden2         -1
             iscf1          7
             iscf2         -2
           istwfk2       3    0    0    0    0    0    0    0    0    0
                         2    0    0    0    0    0    0    0    0    0
                         8    0    0    0    0    0    0    0    0    0
                         0    0    0    0    0    0    0    0
                       outvar_i_n : Printing only first  50 k-points.
              ixc          11
           jdtset        1    2
              kpt1    -8.33333333E-02  0.00000000E+00  0.00000000E+00
                      -2.50000000E-01  0.00000000E+00  0.00000000E+00
                      -1.66666667E-01  0.00000000E+00  1.56250000E-02
                      -8.33333333E-02  0.00000000E+00  3.12500000E-02
                      -1.66666667E-01  8.33333333E-02  0.00000000E+00
                      -8.33333333E-02  8.33333333E-02  1.56250000E-02
                      -4.16666667E-01  0.00000000E+00  0.00000000E+00
                      -3.33333333E-01  0.00000000E+00  1.56250000E-02
                      -2.50000000E-01  0.00000000E+00  3.12500000E-02
                      -1.66666667E-01  0.00000000E+00  4.68750000E-02
                      -8.33333333E-02  0.00000000E+00  6.25000000E-02
                      -3.33333333E-01  8.33333333E-02  0.00000000E+00
                      -2.50000000E-01  8.33333333E-02  1.56250000E-02
                      -1.66666667E-01  8.33333333E-02  3.12500000E-02
                      -8.33333333E-02  8.33333333E-02  4.68750000E-02
                      -2.50000000E-01  1.66666667E-01  0.00000000E+00
                      -1.66666667E-01  1.66666667E-01  1.56250000E-02
                       5.00000000E-01  0.00000000E+00  1.56250000E-02
                      -4.16666667E-01  0.00000000E+00  3.12500000E-02
                      -3.33333333E-01  0.00000000E+00  4.68750000E-02
                      -2.50000000E-01  0.00000000E+00  6.25000000E-02
                      -1.66666667E-01  0.00000000E+00  7.81250000E-02
                      -8.33333333E-02  0.00000000E+00  9.37500000E-02
                       5.00000000E-01  8.33333333E-02  0.00000000E+00
                      -4.16666667E-01  8.33333333E-02  1.56250000E-02
                      -3.33333333E-01  8.33333333E-02  3.12500000E-02
                      -2.50000000E-01  8.33333333E-02  4.68750000E-02
                      -1.66666667E-01  8.33333333E-02  6.25000000E-02
                      -8.33333333E-02  8.33333333E-02  7.81250000E-02
                      -4.16666667E-01  1.66666667E-01  0.00000000E+00
                      -3.33333333E-01  1.66666667E-01  1.56250000E-02
                      -2.50000000E-01  1.66666667E-01  3.12500000E-02
                      -1.66666667E-01  1.66666667E-01  4.68750000E-02
                      -3.33333333E-01  2.50000000E-01  0.00000000E+00
                      -2.50000000E-01  2.50000000E-01  1.56250000E-02
                       5.00000000E-01  0.00000000E+00  4.68750000E-02
                      -4.16666667E-01  0.00000000E+00  6.25000000E-02
                      -3.33333333E-01  0.00000000E+00  7.81250000E-02
                      -2.50000000E-01  0.00000000E+00  9.37500000E-02
                      -1.66666667E-01  0.00000000E+00  1.09375000E-01
                      -8.33333333E-02  0.00000000E+00  1.25000000E-01
                       3.33333333E-01  8.33333333E-02  0.00000000E+00
                       4.16666667E-01  8.33333333E-02  1.56250000E-02
                       5.00000000E-01  8.33333333E-02  3.12500000E-02
                      -4.16666667E-01  8.33333333E-02  4.68750000E-02
                      -3.33333333E-01  8.33333333E-02  6.25000000E-02
                      -2.50000000E-01  8.33333333E-02  7.81250000E-02
                      -1.66666667E-01  8.33333333E-02  9.37500000E-02
                      -8.33333333E-02  8.33333333E-02  1.09375000E-01
                      -4.16666667E-01  1.66666667E-01  3.12500000E-02
              kpt2     5.00000000E-01  0.00000000E+00  0.00000000E+00
                       4.50000000E-01  0.00000000E+00  0.00000000E+00
                       4.00000000E-01  0.00000000E+00  0.00000000E+00
                       3.50000000E-01  0.00000000E+00  0.00000000E+00
                       3.00000000E-01  0.00000000E+00  0.00000000E+00
                       2.50000000E-01  0.00000000E+00  0.00000000E+00
                       2.00000000E-01  0.00000000E+00  0.00000000E+00
                       1.50000000E-01  0.00000000E+00  0.00000000E+00
                       1.00000000E-01  0.00000000E+00  0.00000000E+00
                       5.00000000E-02  0.00000000E+00  0.00000000E+00
                       0.00000000E+00  0.00000000E+00  0.00000000E+00
                       0.00000000E+00  5.00000000E-02  5.00000000E-02
                       0.00000000E+00  1.00000000E-01  1.00000000E-01
                       0.00000000E+00  1.50000000E-01  1.50000000E-01
                       0.00000000E+00  2.00000000E-01  2.00000000E-01
                       0.00000000E+00  2.50000000E-01  2.50000000E-01
                       0.00000000E+00  3.00000000E-01  3.00000000E-01
                       0.00000000E+00  3.50000000E-01  3.50000000E-01
                       0.00000000E+00  4.00000000E-01  4.00000000E-01
                       0.00000000E+00  4.50000000E-01  4.50000000E-01
                       0.00000000E+00  5.00000000E-01  5.00000000E-01
                       5.88235294E-02  5.29411765E-01  5.29411765E-01
                       1.17647059E-01  5.58823529E-01  5.58823529E-01
                       1.76470588E-01  5.88235294E-01  5.88235294E-01
                       2.35294118E-01  6.17647059E-01  6.17647059E-01
                       2.94117647E-01  6.47058824E-01  6.47058824E-01
                       3.52941176E-01  6.76470588E-01  6.76470588E-01
                       4.11764706E-01  7.05882353E-01  7.05882353E-01
                       4.70588235E-01  7.35294118E-01  7.35294118E-01
                       5.29411765E-01  7.64705882E-01  7.64705882E-01
                       5.88235294E-01  7.94117647E-01  7.94117647E-01
                       6.47058824E-01  8.23529412E-01  8.23529412E-01
                       7.05882353E-01  8.52941176E-01  8.52941176E-01
                       7.64705882E-01  8.82352941E-01  8.82352941E-01
                       8.23529412E-01  9.11764706E-01  9.11764706E-01
                       8.82352941E-01  9.41176471E-01  9.41176471E-01
                       9.41176471E-01  9.70588235E-01  9.70588235E-01
                       1.00000000E+00  1.00000000E+00  1.00000000E+00
                       outvar_i_n : Printing only first  50 k-points.
           kptopt1          1
           kptopt2         -3
         kptrlatt       12    0    0      0   12    0     -6    6   32
          kptrlen1     7.23600000E+01
          kptrlen2     3.00000000E+01
P           mkmem1        508
P           mkmem2         38
            natom           3
            nband1         14
            nband2         14
           nbdbuf1          0
           nbdbuf2          2
           ndtset           2
           ndivsm1          0
           ndivsm2         10
            ngfft          27      27     135
             nkpt1        508
             nkpt2         38
            nstep          20
             nsym          12
           ntypat           2
              occ      2.000000  2.000000  2.000000  2.000000  2.000000  2.000000
                       2.000000  2.000000  2.000000  2.000000  2.000000  2.000000
                       2.000000  0.000000
            rprim      8.6602540378E-01 -5.0000000000E-01  0.0000000000E+00
                       8.6602540378E-01  5.0000000000E-01  0.0000000000E+00
                       0.0000000000E+00  0.0000000000E+00  1.0000000000E+00
           shiftk1     0.00000000E+00  0.00000000E+00  5.00000000E-01
           shiftk2     5.00000000E-01  5.00000000E-01  5.00000000E-01
          spgroup         187
           strten1     3.4992235666E-04  3.4992235666E-04  5.3500620740E-04
                       0.0000000000E+00  0.0000000000E+00  0.0000000000E+00
           symrel      1  0  0   0  1  0   0  0  1       1 -1  0   0 -1  0   0  0 -1
                       0 -1  0   1 -1  0   0  0 -1      -1  0  0  -1  1  0   0  0  1
                      -1  1  0  -1  0  0   0  0  1       0  1  0   1  0  0   0  0 -1
                       1  0  0   0  1  0   0  0 -1       1 -1  0   0 -1  0   0  0  1
                       0 -1  0   1 -1  0   0  0  1      -1  0  0  -1  1  0   0  0 -1
                      -1  1  0  -1  0  0   0  0 -1       0  1  0   1  0  0   0  0  1
           toldfe1     1.00000000E-04 Hartree
           toldfe2     0.00000000E+00 Hartree
           tolwfr1     0.00000000E+00
           tolwfr2     1.00000000E-12
            typat      1  2  2
              wtk1       0.00087    0.00087    0.00260    0.00174    0.00174    0.00087
                         0.00087    0.00260    0.00174    0.00260    0.00174    0.00174
                         0.00174    0.00347    0.00087    0.00174    0.00260    0.00130
                         0.00174    0.00260    0.00174    0.00260    0.00174    0.00174
                         0.00174    0.00347    0.00174    0.00347    0.00087    0.00087
                         0.00521    0.00347    0.00260    0.00174    0.00087    0.00130
                         0.00174    0.00260    0.00174    0.00260    0.00174    0.00174
                         0.00174    0.00347    0.00174    0.00347    0.00174    0.00347
                         0.00087    0.00174
              wtk2       1.00000    1.00000    1.00000    1.00000    1.00000    1.00000
                         1.00000    1.00000    1.00000    1.00000    1.00000    1.00000
                         1.00000    1.00000    1.00000    1.00000    1.00000    1.00000
                         1.00000    1.00000    1.00000    1.00000    1.00000    1.00000
                         1.00000    1.00000    1.00000    1.00000    1.00000    1.00000
                         1.00000    1.00000    1.00000    1.00000    1.00000    1.00000
                         1.00000    1.00000
                       outvars : Printing only first  50 k-points.
           xangst      0.0000000000E+00  0.0000000000E+00  0.0000000000E+00
                       1.8422892411E+00  0.0000000000E+00 -1.7098033116E+00
                       1.8422892411E+00  0.0000000000E+00  1.7098033116E+00
            xcart      0.0000000000E+00  0.0000000000E+00  0.0000000000E+00
                       3.4814221232E+00  0.0000000000E+00 -3.2310600000E+00
                       3.4814221232E+00  0.0000000000E+00  3.2310600000E+00
             xred      0.0000000000E+00  0.0000000000E+00  0.0000000000E+00
                       3.3333333333E-01  3.3333333333E-01 -9.8000000000E-02
                       3.3333333333E-01  3.3333333333E-01  9.8000000000E-02
            znucl       42.00000   16.00000

- Timing analysis has been suppressed with timopt=0

 Suggested references for the acknowledgment of ABINIT usage.

 Calculation completed.
.Delivered   2 WARNINGs and   5 COMMENTs to log file.