.Version 9.6.2 of ABINIT

 ABINIT is a project of the Universite Catholique de Louvain,
 Corning Inc. and other collaborators, see ~abinit/doc/developers/contributors.txt .
 acknowledgments of the ABINIT effort.

.Starting date : Sat 10 Dec 2022.
- ( at 17h11 )

 === Build Information ===
  Version       : 9.6.2
  Build target  : x86_64_linux_gnu11.2
  Build date    : 20220106

 === Optimizations ===
  Debug level        : basic
  Optimization level : standard
  Architecture       : intel_xeon

 === Multicore ===
  Parallel build :
  Parallel I/O   :
  openMP support :
  GPU support    :

 === Connectors / Fallbacks ===
  LINALG flavor  : netlib
  FFT flavor     : goedecker
  HDF5           : yes
  NetCDF         : yes
  NetCDF Fortran : yes
  Wannier90      : no

 === Experimental features ===
  Exports             :
  GW double-precision :

 Default optimizations:
   --- None ---

 CPP options activated during the build:

                    CC_GNU                   CXX_GNU                    FC_GNU

 HAVE_FC_ALLOCATABLE_DT...             HAVE_FC_ASYNC         HAVE_FC_BACKTRACE

  HAVE_FC_COMMAND_ARGUMENT      HAVE_FC_COMMAND_LINE        HAVE_FC_CONTIGUOUS

           HAVE_FC_CPUTIME              HAVE_FC_EXIT             HAVE_FC_FLUSH

             HAVE_FC_GAMMA            HAVE_FC_GETENV   HAVE_FC_IEEE_ARITHMETIC

   HAVE_FC_IEEE_EXCEPTIONS          HAVE_FC_INT_QUAD             HAVE_FC_IOMSG

     HAVE_FC_ISO_C_BINDING  HAVE_FC_ISO_FORTRAN_2008        HAVE_FC_LONG_LINES

        HAVE_FC_MOVE_ALLOC  HAVE_FC_ON_THE_FLY_SHAPE           HAVE_FC_PRIVATE

         HAVE_FC_PROTECTED           HAVE_FC_SHIFTLR         HAVE_FC_STREAM_IO

            HAVE_FC_SYSTEM          HAVE_FORTRAN2003                 HAVE_HDF5

                  HAVE_MPI                 HAVE_MPI2       HAVE_MPI_IALLGATHER

       HAVE_MPI_IALLREDUCE        HAVE_MPI_IALLTOALL       HAVE_MPI_IALLTOALLV

           HAVE_MPI_IBCAST         HAVE_MPI_IGATHERV        HAVE_MPI_INTEGER16

               HAVE_MPI_IO HAVE_MPI_TYPE_CREATE_S...               HAVE_NETCDF

       HAVE_NETCDF_FORTRAN                HAVE_NUMPY             HAVE_OS_LINUX

         HAVE_TIMER_ABINIT

- input  file    -> tbase3
- output file    -> tbase3.abo
- root for input  files -> i
- root for output files -> o

-instrng: 67 lines of input have been read from file tbase3

 For atom type 1, psp file is Mo.psp8
 For atom type 2, psp file is S.psp8
  read the values zionpsp= 14.0 , pspcod=   8 , lmax=   2
  read the values zionpsp=  6.0 , pspcod=   8 , lmax=   2

 inpspheads: deduce mpsang = 3, n1xccc = 2501.

 invars1m : enter jdtset= 0

 symlatt: the Bravais lattice is hP (primitive hexagonal)
  xred   is defined in input file
 ingeo: takes atomic coordinates from input array xred

--- !COMMENT
src_file: m_ingeo.F90
src_line: 900
message: |
    The tolerance on symmetries =   1.000E-05 is bigger than 1.0e-8.
    In order to avoid spurious effects, the atomic coordinates have been
    symmetrized before storing them in the dataset internal variable.
    So, do not be surprised by the fact that your input variables (xcart, xred, ...)
    do not correspond exactly to the ones echoed by ABINIT, the latter being used to do the calculations.
    This is not a problem per se.
    Still, in order to avoid this symmetrization (e.g. for specific debugging/development), decrease tolsym to 1.0e-8 or lower,
    or (much preferred) use input primitive vectors that are accurate to better than 1.0e-8.
    This message will only be printed once, even if there are other datasets where tolsym is bigger than 1.0e-8.
...

 symlatt: the Bravais lattice is hP (primitive hexagonal)

 symlatt: the Bravais lattice is hP (primitive hexagonal)
 symspgr: spgroup= 187  P-6 m 2   (=D3h^1)
 symspgr: optical characteristics = uniaxial
 Optical axis (in reduced coordinates, real space ) :   0   0   1
 inkpts: Sum of 1 k point weights is    1.000000
 invars2: take the default value of fband=  1.25000000E-01
 inkpts: Sum of 1 k point weights is    1.000000
 For input ecut=  2.000000E+01 best grid ngfft=      27      27     135
       max ecut=  2.037893E+01

 ==== FFT mesh ====
  FFT mesh divisions ........................    27   27  135
  Augmented FFT divisions ...................    27   27  135
  FFT algorithm .............................   112
  FFT cache size ............................    16
 getmpw: optimal value of mpw= 2194

 Symmetries : space group P-6 m 2 (#187); Bravais hP (primitive hexag.)

 getdim_nloc : deduce lmnmax  =  18, lnmax  =   6,
                      lmnmaxso=  18, lnmaxso=   6.
     intxc =       0    ionmov =       0      iscf =       7    lmnmax =       6
     lnmax =       6     mgfft =     135  mpssoang =       3    mqgrid =    6638
     natom =       3  nloc_mem =       1    nspden =       1   nspinor =       1
    nsppol =       1      nsym =      12    n1xccc =    2501    ntypat =       2
    occopt =       1   xclevel =       2
-    mband =          14        mffmem =           1         mkmem =           1
       mpw =        2194          nfft =       98415          nkpt =           1
  Rough estimation (10% accuracy) of disk space for files :

 The job will continue.
------------- Echo of variables that govern the present computation ------------
-
- outvars: echo of selected default values
-   iomode0 =  0 , fftalg0 =112 , wfoptalg0 =  0
-
- outvars: echo of global parameters not present in the input file
-  max_nthreads =    0
-
 -outvars: echo values of preprocessed input variables --------

 These variables are accessible in NetCDF format (o_OUT.nc)

            acell      6.0300000000E+00  6.0300000000E+00  3.2970000000E+01 Bohr
              amu      9.59400000E+01  3.20660000E+01
           diemac      2.00000000E+00
             ecut      2.00000000E+01 Hartree
-          fftalg         112
           istwfk        2
              ixc          11
           kptopt           0
P           mkmem           1
            natom           3
            nband          14
            ngfft          27      27     135
             nkpt           1
            nstep          20
             nsym          12
           ntypat           2
              occ      2.000000  2.000000  2.000000  2.000000  2.000000  2.000000
                       2.000000  2.000000  2.000000  2.000000  2.000000  2.000000
                       2.000000  0.000000
            rprim      8.6602540378E-01 -5.0000000000E-01  0.0000000000E+00
                       8.6602540378E-01  5.0000000000E-01  0.0000000000E+00
                       0.0000000000E+00  0.0000000000E+00  1.0000000000E+00
          spgroup         187
           symrel      1  0  0   0  1  0   0  0  1       1 -1  0   0 -1  0   0  0 -1
                       0 -1  0   1 -1  0   0  0 -1      -1  0  0  -1  1  0   0  0  1
                      -1  1  0  -1  0  0   0  0  1       0  1  0   1  0  0   0  0 -1
                       1  0  0   0  1  0   0  0 -1       1 -1  0   0 -1  0   0  0  1
                       0 -1  0   1 -1  0   0  0  1      -1  0  0  -1  1  0   0  0 -1
                      -1  1  0  -1  0  0   0  0 -1       0  1  0   1  0  0   0  0  1
           toldfe      1.00000000E-06 Hartree
            typat      1  2  2
           xangst      0.0000000000E+00  0.0000000000E+00  0.0000000000E+00
                       1.8422892411E+00  0.0000000000E+00 -6.9787890269E-01
                       1.8422892411E+00  0.0000000000E+00  6.9787890269E-01
            xcart      0.0000000000E+00  0.0000000000E+00  0.0000000000E+00
                       3.4814221232E+00  0.0000000000E+00 -1.3188000000E+00
                       3.4814221232E+00  0.0000000000E+00  1.3188000000E+00
             xred      0.0000000000E+00  0.0000000000E+00  0.0000000000E+00
                       3.3333333333E-01  3.3333333333E-01 -4.0000000000E-02
                       3.3333333333E-01  3.3333333333E-01  4.0000000000E-02
            znucl       42.00000   16.00000

 chkinp: Checking input parameters for consistency.
 DATA TYPE INFORMATION:
 REAL:      Data type name: REAL(DP)
            Kind value:      8
            Precision:      15
            Smallest nonnegligible quantity relative to 1: 0.22204460E-015
            Smallest positive number:                      0.22250739E-307
            Largest representable number:                  0.17976931E+309
 INTEGER:   Data type name: INTEGER(default)
            Kind value: 4
            Bit size:   32
            Largest representable number: 2147483647
 LOGICAL:   Data type name: LOGICAL
            Kind value: 4
 CHARACTER: Data type name: CHARACTER             Kind value: 1

  ==== OpenMP parallelism is OFF ====

  xmpi_tag_ub ................   2147483647
  xmpi_bsize_ch ..............            1
  xmpi_bsize_int .............            4
  xmpi_bsize_sp ..............            4
  xmpi_bsize_dp ..............            8
  xmpi_bsize_spc .............            8
  xmpi_bsize_dpc .............           16
  xmpio_bsize_frm ............            4
  xmpi_address_kind ..........            8
  xmpi_offset_kind ...........            8
  MPI_WTICK ..................    1.0000000000000001E-009

== DATASET  1 ==================================================================
-   mpi_nproc: 1, omp_nthreads: -1 (-1 if OMP is not activated)

 getdim_nloc : deduce lmnmax  =  18, lnmax  =   6,
                      lmnmaxso=  18, lnmaxso=   6.
 Exchange-correlation functional for the present dataset will be:
  GGA: Perdew-Burke-Ernzerhof functional - ixc=11
 Citation for XC functional:
  J.P.Perdew, K.Burke, M.Ernzerhof, PRL 77, 3865 (1996)

 Unit cell volume ucvol=  1.0382076E+03 bohr^3
 Angles (23,13,12)=  9.00000000E+01  9.00000000E+01  6.00000000E+01 degrees

 getcut: wavevector=  0.0000  0.0000  0.0000  ngfft=  27  27 135
         ecut(hartree)=     20.000   => boxcut(ratio)=   2.01886
- pspini: atom type   1  psp file is Mo.psp8
- pspatm: opening atomic psp file    Mo.psp8
- Mo    ONCVPSP-3.2.3.1  r_core=   1.45541   1.45541   1.35488
- 42.00000  14.00000    170510                znucl, zion, pspdat
    8   11    2    4       600   0.00000      pspcod,pspxc,lmax,lloc,mmax,r2well
    5.99000000000000    3.00000000000000    0.00000000000000   rchrg,fchrg,qchrg
     nproj     2     2     2
     extension_switch     1
  valence charge integrates to:    13.910619929066559
  pspatm : epsatm=   15.95693586
         --- l  ekb(1:nproj) -->
             0   13.833287    1.350687
             1    8.015347    1.134034
             2    2.765699    0.969071
 pspatm: atomic psp has been read  and splines computed

- pspini: atom type   2  psp file is S.psp8
- pspatm: opening atomic psp file    S.psp8
- S     ONCVPSP-3.2.3.1  r_core=   1.45376   1.45376   1.61851
- 16.00000   6.00000    170504                znucl, zion, pspdat
    8   11    2    4       600   0.00000      pspcod,pspxc,lmax,lloc,mmax,r2well
    5.99000000000000    6.00000000000000    0.00000000000000   rchrg,fchrg,qchrg
     nproj     2     2     2
     extension_switch     1
  valence charge integrates to:    5.9895206683396385
  pspatm : epsatm=    9.01821879
         --- l  ekb(1:nproj) -->
             0    6.763951    0.574108
             1    3.227080    0.887329
             2   -3.547662   -0.986524
 pspatm: atomic psp has been read  and splines computed

   8.83827710E+02                                ecore*ucvol(ha*bohr**3)
 ==== Info on pseudopotentials ====
  Norm-conserving pseudopotentials
  Number of pseudopotentials ..    2
  Number of types of atoms   ..    2
  Scalar calculation (no spin-orbit term)
  Nonlocal part applied using Legendre polynomials
  Max number of non-local projectors over l and type   2
  Highest angular momentum +1 .......   3
  Max number of (l,n)   components ..   6
  Max number of (l,m,n) components ..   6

 Pseudo-Core Charge Info:
   Number of radial points for pseudo-core charge .. 2501
   XC core-correction treatment (optnlxccc) ........    1
   Radius for pseudo-core charge for each type .....

  - Atom type    1 has pseudo-core radius ..  5.9900
  - Atom type    2 has pseudo-core radius ..  5.9900

 Info on the Q-grid used for form factors in spline form:
   Number of q-points for radial functions ffspl ..   6638
   Number of q-points for vlspl ...................   6638
   vloc is computed in Reciprocal Space
   model core charge treated in real-space

  XC functional for type 1 is 11
  Pseudo valence available: yes
  XC functional for type 2 is 11
  Pseudo valence available: yes

 symatm: atom number 1 is reached starting at atom
   1  1  1  1  1  1  1  1  1  1  1  1
 symatm: atom number 2 is reached starting at atom
   2  3  3  2  2  3  3  2  2  3  3  2
 symatm: atom number 3 is reached starting at atom
   3  2  2  3  3  2  2  3  3  2  2  3
 wfconv:    14 bands initialized randomly with npw=  2194, for ikpt=     1
_setup2: Arith. and geom. avg. npw (full set) are    4387.000    4387.000
 initro: for itypat=  1, take pseudo charge density from pp file
 initro: for itypat=  2, take pseudo charge density from pp file

 getcut: wavevector=  0.0000  0.0000  0.0000  ngfft=  27  27 135
         ecut(hartree)=     20.000   => boxcut(ratio)=   2.01886

 1/G**2 cut-off applied in the following step : cutoff-mode = CRYSTAL

[...]

 1/G**2 cut-off applied in the following step : cutoff-mode = CRYSTAL

--- !WARNING
src_file: m_drivexc.F90
src_line: 711
message: |
    Density went too small (lower than xc_denpos) at 14068 points
    and was set to xc_denpos =   1.00E-14. Lowest was  -0.40E-05.
    This might be due to (1) too low boxcut or (2) too low ecut for
     pseudopotential core charge, or (3) too low ecut for estimated initial density.
     Possible workarounds : increase ecut, or define the input variable densty,
     with a value larger than the guess for the decay length, or initialize your,
     density with a preliminary LDA or GGA-PBE if you are using a more exotic xc functional.
...

 ITER STEP NUMBER     1
 Max number of non-self-consistent loops: 2
 Total charge density [el/Bohr^3]
      Maximum=    8.7304E-01  at reduced coord.    0.0370    0.9259    0.9778
      Minimum=    1.1625E-04  at reduced coord.    0.3333    0.3333    0.3852
   Integrated=    2.6000E+01

 1/G**2 cut-off applied in the following step : cutoff-mode = CRYSTAL
 ETOT  1  -90.689211417437    -9.069E+01 5.084E-02 3.121E+03
 scprqt: <Vxc>= -1.8997011E-01 hartree

 Simple mixing update:
  residual square of the potential:    1073.0348482461357
{SCF_istep: 1 , Vnl|psi>: 140 , wall_time: '  0.86 [s] '} <<< TIME

 ITER STEP NUMBER     2
 Max number of non-self-consistent loops: 2
 Total charge density [el/Bohr^3]
      Maximum=    1.1561E+00  at reduced coord.    0.9630    0.9630    0.9778
      Minimum=    5.5321E-08  at reduced coord.    0.6667    0.6667    0.3111
   Integrated=    2.6000E+01
 ETOT  2  -90.107706696992     5.815E-01 2.807E-02 8.458E+03
 scprqt: <Vxc>= -1.2761195E-01 hartree

 Pulay update with  1 previous iterations:
 mixing of old trial potential: alpha(m:m-4)=  0.358      0.642
{SCF_istep: 2 , Vnl|psi>: 140 , wall_time: '  0.23 [s] '} <<< TIME

 ITER STEP NUMBER     3
 Total charge density [el/Bohr^3]
      Maximum=    9.6471E-01  at reduced coord.    0.9630    0.9630    0.9778
      Minimum=    8.6521E-08  at reduced coord.    0.4074    0.1852    0.4000
   Integrated=    2.6000E+01
 ETOT  3  -91.183106578319    -1.075E+00 1.807E-02 2.388E+03
 scprqt: <Vxc>= -1.2999872E-01 hartree

[...]

 Pulay update with  7 previous iterations:
 mixing of old trial potential: alpha(m:m-4)=   1.92     -0.931     -0.603E-01  0.197E-01 -0.368E-01
{SCF_istep: 19 , Vnl|psi>: 70 , wall_time: '  0.14 [s] '} <<< TIME

 ITER STEP NUMBER    20
 Total charge density [el/Bohr^3]
      Maximum=    9.6166E-01  at reduced coord.    0.9630    0.9630    0.9778
      Minimum=    0.0000E+00  at reduced coord.    0.4074    0.1852    0.3926
   Integrated=    2.6000E+01
 ETOT 20  -91.223361172991    -1.945E-04 2.176E-06 6.373E+02
 scprqt: <Vxc>= -1.3355378E-01 hartree

 Pulay update with  7 previous iterations:
 mixing of old trial potential: alpha(m:m-4)=  0.497       1.23     -0.732     -0.579E-01 -0.154E-02

 Ekinetic   = :     3.441031E+01 Ha ,    9.363523E+02 eV
 Evext_l    = :    -6.099232E+02 Ha ,   -1.659685E+04 eV
 Evext_nl   = :     1.180840E+01 Ha ,    3.213229E+02 eV
 Epsp_core  = :     8.513015E-01 Ha ,    2.316509E+01 eV
 Ehartree   = :     2.838720E+02 Ha ,    7.724550E+03 eV
 Exc_ks     = :    -1.783147E+01 Ha ,   -4.852190E+02 eV
 Enn        = :     2.055893E+02 Ha ,    5.594369E+03 eV
 Etot       = :    -9.122336E+01 Ha ,   -2.482314E+03 eV

 Cartesian components of stress tensor (hartree/bohr^3)
  sigma(1 1)= -1.24246573E-03  sigma(3 2)=  0.00000000E+00
  sigma(2 2)= -1.24246573E-03  sigma(3 1)=  0.00000000E+00
  sigma(3 3)= -3.66949581E-03  sigma(2 1)=  0.00000000E+00

--- !ScfConvergenceWarning
message: |
    nstep 20 was not enough SCF cycles to converge.
...

 scprqt:  WARNING -
  nstep=   20 was not enough SCF cycles to converge;
  maximum energy difference=  1.945E-04 exceeds toldfe=  1.000E-06

 fftdatar_write: About to write data to: o_DEN with iomode: IO_MODE_FORTRAN
 Integrated electronic density in atomic spheres:
 Atom  Sphere_radius  Integrated_density
    1        2.00000         11.73559012
    2        2.00000          5.63999712
    3        2.00000          5.63999712

 ----iterations are completed or convergence reached----

 === Gap info ===
  >>>> For spin  1
   Minimum direct gap =   0.0203 [eV], located at k-point      :   0.0000  0.0000  0.0000
   Fundamental gap    =   0.0203 [eV], Top of valence bands at :   0.0000  0.0000  0.0000
                                       Bottom of conduction at :   0.0000  0.0000  0.0000
 Mean square residual over all n,k,spin=   15.891E-08; max=  21.756E-07
   0.0000  0.0000  0.0000    1  2.17558E-06 kpt; spin; max resid(k); each band:
  9.75E-10 1.02E-10 1.02E-10 9.27E-10 3.99E-09 1.94E-08 2.76E-10 2.63E-10
  9.02E-09 1.15E-09 8.53E-10 7.84E-09 4.23E-09 2.18E-06

   outwf: writing wavefunctions to: o_WFK with iomode: IO_MODE_FORTRAN_MASTER
 prteigrs : about to open file o_EIG
 Fermi (or HOMO) energy (hartree) =   0.07665   Average Vxc (hartree)=  -0.13355
 Eigenvalues (hartree) for nkpt=   1  k points:
 kpt#   1, nband= 14, wtk=  1.00000, kpt=  0.0000  0.0000  0.0000 (reduced coord)
  -2.27848   -1.36887   -1.36887   -1.30852   -0.89249   -0.47183   -0.46993   -0.46993
  -0.37659   -0.20048   -0.20048   -0.00013    0.07665    0.07740
 Total charge density [el/Bohr^3]
      Maximum=    9.6166E-01  at reduced coord.    0.9630    0.9630    0.9778
 Next maximum=    9.6166E-01  at reduced coord.    0.0741    0.9630    0.9778
      Minimum=    0.0000E+00  at reduced coord.    0.4074    0.1852    0.3926
 Next minimum=    0.0000E+00  at reduced coord.    0.1852    0.4074    0.3926
   Integrated=    2.6000E+01

 Cartesian components of stress tensor (hartree/bohr^3)
  sigma(1 1)= -1.24246573E-03  sigma(3 2)=  0.00000000E+00
  sigma(2 2)= -1.24246573E-03  sigma(3 1)=  0.00000000E+00
  sigma(3 3)= -3.66949581E-03  sigma(2 1)=  0.00000000E+00

-Cartesian components of stress tensor (GPa)         [Pressure=  6.0356E+01 GPa]
- sigma(1 1)= -3.65545977E+01  sigma(3 2)=  0.00000000E+00
- sigma(2 2)= -3.65545977E+01  sigma(3 1)=  0.00000000E+00
- sigma(3 3)= -1.07960276E+02  sigma(2 1)=  0.00000000E+00

== END DATASET(S) ==============================================================

 -outvars: echo values of variables after computation  --------

 These variables are accessible in NetCDF format (o_OUT.nc)

            acell      6.0300000000E+00  6.0300000000E+00  3.2970000000E+01 Bohr
              amu      9.59400000E+01  3.20660000E+01
           diemac      2.00000000E+00
             ecut      2.00000000E+01 Hartree
           etotal     -9.1223361173E+01
            fcart     -0.0000000000E+00 -0.0000000000E+00 -0.0000000000E+00
                      -3.2999789202E-27 -1.7147193461E-26 -1.2819146355E+00
                       3.2999789202E-27  1.7147193461E-26  1.2819146355E+00
-          fftalg         112
           istwfk        2
              ixc          11
           kptopt           0
P           mkmem           1
            natom           3
            nband          14
            ngfft          27      27     135
             nkpt           1
            nstep          20
             nsym          12
           ntypat           2
              occ      2.000000  2.000000  2.000000  2.000000  2.000000  2.000000
                       2.000000  2.000000  2.000000  2.000000  2.000000  2.000000
                       2.000000  0.000000
            rprim      8.6602540378E-01 -5.0000000000E-01  0.0000000000E+00
                       8.6602540378E-01  5.0000000000E-01  0.0000000000E+00
                       0.0000000000E+00  0.0000000000E+00  1.0000000000E+00
          spgroup         187
           strten     -1.2424657325E-03 -1.2424657325E-03 -3.6694958064E-03
                       0.0000000000E+00  0.0000000000E+00  0.0000000000E+00
           symrel      1  0  0   0  1  0   0  0  1       1 -1  0   0 -1  0   0  0 -1
                       0 -1  0   1 -1  0   0  0 -1      -1  0  0  -1  1  0   0  0  1
                      -1  1  0  -1  0  0   0  0  1       0  1  0   1  0  0   0  0 -1
                       1  0  0   0  1  0   0  0 -1       1 -1  0   0 -1  0   0  0  1
                       0 -1  0   1 -1  0   0  0  1      -1  0  0  -1  1  0   0  0 -1
                      -1  1  0  -1  0  0   0  0 -1       0  1  0   1  0  0   0  0  1
           toldfe      1.00000000E-06 Hartree
            typat      1  2  2
           xangst      0.0000000000E+00  0.0000000000E+00  0.0000000000E+00
                       1.8422892411E+00  0.0000000000E+00 -6.9787890269E-01
                       1.8422892411E+00  0.0000000000E+00  6.9787890269E-01
            xcart      0.0000000000E+00  0.0000000000E+00  0.0000000000E+00
                       3.4814221232E+00  0.0000000000E+00 -1.3188000000E+00
                       3.4814221232E+00  0.0000000000E+00  1.3188000000E+00
             xred      0.0000000000E+00  0.0000000000E+00  0.0000000000E+00
                       3.3333333333E-01  3.3333333333E-01 -4.0000000000E-02
                       3.3333333333E-01  3.3333333333E-01  4.0000000000E-02
            znucl       42.00000   16.00000

 Suggested references for the acknowledgment of ABINIT usage.

 Calculation completed.
.Delivered   2 WARNINGs and   2 COMMENTs to log file.

--- !FinalSummary
program: abinit
version: 9.6.2
start_datetime: Sat Dec 10 17:11:56 2022
end_datetime: Sat Dec 10 17:12:02 2022
overall_cpu_time:           5.0
overall_wall_time:           5.7
exit_requested_by_user: no
timelimit: 0
pseudos:
    Mo  : 228091cb5782e08cb8d68936b3c7e57b
    S   : bfa270bf1631b0df1a1d98e9ab044d60
usepaw: 0
mpi_procs: 1
omp_threads: 1
num_warnings: 2
num_comments: 2
...